55
anti_O_NPh_diOMe_tetClbenz.log	Energy: -2054520.4258415
C         -2.27397       -1.97776        0.20671
C         -1.28206       -0.99860        0.08868
C          0.06342       -1.35021       -0.21924
C          1.01380       -0.37050       -0.32937
C          2.44057       -0.35581       -0.62042
C          3.36468       -1.35741       -0.89616
Cl         2.85382       -3.01406       -0.93431
C          4.70097       -1.03184       -1.14159
Cl         5.85251       -2.27882       -1.48379
C          2.85819        0.99734       -0.58915
C          4.19071        1.33703       -0.83501
Cl         4.72052        2.98840       -0.80727
C          5.10460        0.31293       -1.10963
Cl         6.76021        0.71142       -1.41541
C          0.64017        1.00028       -0.13363
N          1.76947        1.80295       -0.29686
C          1.70076        3.22089       -0.14642
C          1.89271        3.78879        1.10961
C          1.78818        5.16725        1.26087
C          1.48081        5.96786        0.16341
C          1.27060        5.39062       -1.08653
C          1.37471        4.01269       -1.24351
C         -0.63283        1.38894        0.16351
C         -1.63665        0.38427        0.28326
C         -2.96278        0.70273        0.58604
C         -3.95530       -0.27319        0.70642
C         -5.30566        0.07312        1.01783
C         -6.23864       -0.92034        1.12875
C         -7.65431       -0.97614        1.41677
O         -8.47134        0.08852        1.66920
C         -8.29199        0.63478        2.96761
C         -7.99879       -2.29267        1.36014
O         -9.12061       -2.97882        1.51018
C        -10.29645       -2.23186        1.80454
C         -5.85724       -2.28055        0.91842
O         -6.94851       -3.10180        1.05606
C         -4.59815       -2.67708        0.61931
C         -3.59699       -1.65947        0.50823
H         -2.00280       -3.02062        0.05756
H          0.30976       -2.39545       -0.36120
H          2.13328        3.14770        1.95167
H          1.94788        5.61621        2.23613
H          1.40168        7.04402        0.28322
H          1.02678        6.01364       -1.94128
H          1.21753        3.54357       -2.20950
H         -0.88721        2.43421        0.30715
H         -3.23219        1.74631        0.73303
H         -5.57435        1.11700        1.15087
H         -8.93826        1.51231        3.02930
H         -7.25042        0.93384        3.13493
H         -8.57860       -0.09031        3.74117
H        -11.10366       -2.96308        1.83278
H        -10.48718       -1.48318        1.03206
H        -10.20926       -1.73818        2.77768
H         -4.34864       -3.72134        0.46408
