46
anti_S_O_tetFbenz_m-OMebenz.log	Energy: -1244712.1584756
C         -3.57472        0.28888       -1.39432
C         -4.64349       -0.08692       -0.57751
C         -5.99643        0.16911       -0.96097
C         -7.01147       -0.21443       -0.13453
C         -8.46217       -0.13453       -0.16948
C         -9.40832        0.36345       -1.05545
C        -10.76113        0.25926       -0.74324
C         -8.90150       -0.73115        1.02082
C        -10.22958       -0.85307        1.36526
C        -11.16745       -0.34468        0.45812
O        -12.46054       -0.48509        0.83498
C        -13.46850        0.00093       -0.02423
C         -6.71124       -0.86799        1.10550
O         -7.85918       -1.17361        1.79127
C         -5.45216       -1.13898        1.52630
C         -4.36898       -0.74642        0.67695
C         -3.04268       -0.98783        1.03501
C         -1.97483       -0.61056        0.21564
C         -0.62458       -0.86274        0.59254
C          0.40423       -0.48447       -0.22701
C          1.84170       -0.64386       -0.03780
C          2.53335       -1.22043        1.02274
F          1.88128       -1.73259        2.07105
C          3.91962       -1.27708        1.01622
F          4.57470       -1.83007        2.03397
C          2.57854       -0.12106       -1.11399
C          3.96245       -0.17497       -1.12574
F          4.65632        0.32291       -2.15047
C          4.63573       -0.75393       -0.05876
F          5.96350       -0.81310       -0.05520
C          0.11757        0.17089       -1.47448
S          1.58106        0.57449       -2.38072
C         -1.15894        0.43102       -1.87183
C         -2.24806        0.04567       -1.03362
H         -3.78304        0.78564       -2.33930
H         -6.19472        0.66611       -1.90652
H         -9.10426        0.83197       -1.98649
H        -11.49341        0.64993       -1.43898
H        -10.55298       -1.31694        2.28894
H        -14.41432       -0.21679        0.47267
H        -13.44608       -0.50549       -0.99737
H        -13.38026        1.08412       -0.17551
H         -5.26190       -1.63551        2.47166
H         -2.83223       -1.48434        1.97942
H         -0.42511       -1.35770        1.53624
H         -1.36750        0.92676       -2.81554
