54
anti_NPh_NPh_C_diCN.log	Energy: -909103.2587268
C          0.77986       -0.91320       -1.09258
C          2.10758       -0.51350       -0.90252
C          3.03785       -0.51108       -1.97521
C          4.32871       -0.11507       -1.74007
C          5.49119        0.01496       -2.58745
C          5.56233       -0.27904       -3.97216
N          5.58119       -0.52958       -5.10481
C          6.51637        0.47151       -1.79318
C          7.86118        0.73139       -2.18023
N          8.95220        0.94622       -2.50648
C          4.73929        0.28961       -0.42766
N          6.08681        0.64263       -0.49321
C          6.88312        1.08736        0.59972
C          7.53065        2.31846        0.53255
C          8.31551        2.73558        1.60225
C          8.43252        1.93984        2.73817
C          7.77176        0.71540        2.80187
C          7.00219        0.27958        1.72941
C          3.87717        0.31602        0.63326
C          2.53141       -0.09143        0.41525
C          1.59522       -0.09319        1.45369
C          0.27010       -0.49035        1.26253
C         -0.67222       -0.47515        2.32989
C         -1.96307       -0.87536        2.10654
C         -3.13916       -0.95681        2.94009
C         -4.14599       -1.41501        2.15815
C         -2.35932       -1.31954        0.79139
N         -3.70881       -1.65043        0.86094
C         -4.51920       -2.13306       -0.19255
C         -4.07815       -3.18965       -0.99107
C         -4.88515       -3.65939       -2.02114
C         -6.13954       -3.09809       -2.24577
C         -6.58182       -2.05433       -1.43787
C         -5.77191       -1.56234       -0.41999
C         -1.49797       -1.33218       -0.26914
C         -0.15150       -0.91773       -0.05416
H          0.46588       -1.23041       -2.08450
H          2.72145       -0.81640       -2.96860
H          7.41882        2.94146       -0.34896
H          8.82875        3.69018        1.54852
H          9.04041        2.27250        3.57355
H          7.86635        0.08901        3.68321
H          6.50063       -0.68264        1.75593
H          4.19373        0.64098        1.61915
H          1.90933        0.22703        2.44474
H         -0.35552       -0.13571        3.31241
H         -3.20646       -0.71149        3.98977
H         -5.17420       -1.63262        2.41316
H         -3.11474       -3.64690       -0.79007
H         -4.53657       -4.47999       -2.64068
H         -6.76930       -3.47263       -3.04650
H         -7.55630       -1.60736       -1.60906
H         -6.09808       -0.72569        0.19049
H         -1.81252       -1.63733       -1.26196
