60
anti_O_NPh_m-CF3benz_p-OMebenz.log	Energy: -1136960.1720073
C         -3.46146        0.97664        0.01809
C         -4.52688        0.07271        0.01980
C         -5.88130        0.51963        0.02078
C         -6.89644       -0.39130        0.02505
C         -8.34561       -0.26422        0.01188
C         -9.19279        0.83320        0.01439
C        -10.57262        0.62240        0.01926
O        -11.33865        1.74918        0.01666
C        -12.73781        1.59816        0.03297
C         -8.86910       -1.57115        0.01051
C        -10.23808       -1.78839        0.02874
C        -11.08643       -0.68062        0.03023
C         -6.60918       -1.80333        0.03355
N         -7.81669       -2.49626        0.02571
C         -7.95831       -3.90288        0.01886
C         -7.35018       -4.67080        1.01317
C         -7.48330       -6.05494        0.99691
C         -8.23935       -6.67664        0.00649
C         -8.85434       -5.90747       -0.97785
C         -8.70696       -4.52459       -0.98169
C         -5.32909       -2.27897        0.01913
C         -4.25187       -1.34308        0.01453
C         -2.91984       -1.76334        0.00433
C         -1.85345       -0.86041        0.00153
C         -0.49902       -1.31277       -0.00860
C          0.51250       -0.39653       -0.00975
C          1.96555       -0.46410       -0.01847
C          2.90567       -1.49058       -0.02551
C          4.25482       -1.15959       -0.02734
C          2.40013        0.86664       -0.01371
C          3.73573        1.22394       -0.01497
C          4.65894        0.18073       -0.02163
C          6.13000        0.49435       -0.08206
F          6.85169       -0.36494        0.65797
F          6.59893        0.41276       -1.34053
F          6.40123        1.73307        0.35996
C          0.21040        1.00198       -0.00075
O          1.36131        1.75380       -0.00274
C         -1.05189        1.49561        0.00829
C         -2.13105        0.55616        0.00963
H         -3.67710        2.04282        0.02253
H         -6.08773        1.58673        0.01221
H         -8.81425        1.85017        0.01666
H        -13.15014        2.60803        0.02937
H        -13.07862        1.07348        0.93559
H        -13.09793        1.05938       -0.85375
H        -10.65083       -2.79139        0.04825
H        -12.15652       -0.85135        0.04322
H         -6.78340       -4.17571        1.79548
H         -7.00563       -6.64807        1.77085
H         -8.34866       -7.75666        0.00168
H         -9.44017       -6.38600       -1.75679
H         -9.16094       -3.91954       -1.76042
H         -5.11536       -3.34302        0.00516
H         -2.70466       -2.82970       -0.00179
H         -0.29475       -2.37997       -0.01537
H          2.59392       -2.53015       -0.02608
H          5.00529       -1.94226       -0.02669
H          4.04319        2.26232       -0.00630
H         -1.24712        2.56257        0.01450
