39
anti_S_O_m-CNbenz_diCN.log	Energy: -1001056.3790532
C         -3.82630        0.37591       -1.22318
C         -4.86943       -0.22358       -0.50634
C         -6.22863        0.01044       -0.85769
C         -7.20791       -0.60079       -0.12377
C         -8.65690       -0.61523       -0.16470
C         -9.49323        0.07892       -1.07767
N        -10.14302        0.66076       -1.84080
C         -9.05014       -1.43132        0.85253
C        -10.35863       -1.80144        1.26757
N        -11.43187       -2.09242        1.59178
C         -6.86779       -1.45085        0.96611
O         -8.00739       -1.94795        1.54887
C         -5.59318       -1.71444        1.35163
C         -4.54890       -1.09132        0.60521
C         -3.20506       -1.30367        0.92848
C         -2.17098       -0.70385        0.21076
C         -0.80291       -0.92558        0.54662
C          0.19341       -0.32712       -0.17112
C          1.63709       -0.42687        0.01304
C          2.34091       -1.16045        0.96974
C          3.72529       -1.12832        0.98418
C          2.34531        0.33913       -0.92835
C          3.73295        0.38312       -0.92868
C          4.41807       -0.35811        0.03681
C          5.85430       -0.33062        0.05882
N          7.01297       -0.31022        0.07854
C         -0.13933        0.53437       -1.27539
S          1.29690        1.19649       -2.05601
C         -1.43059        0.77565       -1.63276
C         -2.48964        0.16063       -0.89668
H         -4.07005        1.02782       -2.05845
H         -6.47168        0.66150       -1.69189
H         -5.37013       -2.36769        2.18773
H         -2.96070       -1.95546        1.76375
H         -0.56996       -1.57887        1.38333
H          1.80727       -1.75669        1.70328
H          4.28241       -1.69404        1.72245
H          4.28177        0.97349       -1.65422
H         -1.67606        1.42646       -2.46673
