54
anti_S_NPh_m-OMebenz_2-CF3.log	Energy: -1243246.5849351
C         -2.78776       -2.04991        1.31423
C         -3.91529       -1.32178        0.90600
C         -5.23018       -1.78440        1.17374
C         -6.30930       -1.04487        0.75653
C         -7.73538       -1.21846        0.85944
C         -8.30723       -0.14689        0.25476
C         -9.77018        0.11341        0.09821
F        -10.47792       -0.94434        0.51362
F        -10.17734        1.17545        0.81975
F        -10.10226        0.35648       -1.17911
C         -6.09825        0.18979        0.05363
N         -7.34517        0.72800       -0.23744
C         -7.54840        1.92129       -0.98844
C         -7.16965        1.95266       -2.32953
C         -7.33511        3.12182       -3.06317
C         -7.88703        4.25099       -2.46272
C         -8.26412        4.21272       -1.12339
C         -8.08592        3.05147       -0.37836
C         -4.85019        0.67962       -0.22360
C         -3.72395       -0.07540        0.20031
C         -2.41571        0.36233       -0.04942
C         -1.30105       -0.36503        0.35933
C          0.02855        0.08810        0.10153
C          1.10744       -0.64155        0.51133
C          2.52784       -0.35498        0.34780
C          3.13800        0.74159       -0.27088
C          4.51475        0.83379       -0.32449
C          3.34394       -1.34561        0.90498
C          4.73531       -1.27479        0.86336
C          5.31733       -0.17162        0.24117
O          6.65352        0.02292        0.13020
C          7.51523       -0.94948        0.67858
C          0.89829       -1.88355        1.21184
S          2.42544       -2.65817        1.64571
C         -0.34778       -2.35723        1.48134
C         -1.49296       -1.60926        1.06194
H         -2.93401       -2.98826        1.84499
H         -5.36772       -2.72026        1.70857
H         -8.26279       -2.04020        1.31971
H         -6.75269        1.05979       -2.78473
H         -7.04141        3.14736       -4.10793
H         -8.02212        5.16106       -3.03901
H         -8.69018        5.09244       -0.65136
H         -8.36252        3.01268        0.66904
H         -4.71043        1.61848       -0.75051
H         -2.26871        1.30109       -0.57915
H          0.16451        1.02770       -0.42827
H          2.52952        1.52591       -0.71192
H          5.00621        1.67573       -0.79938
H          5.33501       -2.06121        1.30573
H          8.52853       -0.59866        0.48072
H          7.37134       -1.92794        0.20268
H          7.37130       -1.04843        1.76213
H         -0.49578       -3.29453        2.01030
