43
anti_C_C_3-F_p-CNbenz.log	Energy: -747688.5324164
C         -2.27061        1.37875        0.42340
C         -3.48088        0.70493        0.56151
C         -4.71102        1.39928        0.73350
C         -5.91043        0.74592        0.87068
C         -7.19136        1.44858        1.04974
C         -7.28059        2.84564        1.09393
C         -8.50437        3.48289        1.26449
C         -8.55559        4.91781        1.30467
N         -8.59611        6.07600        1.33674
C         -8.38280        0.69830        1.18358
C         -9.61125        1.35930        1.35527
C         -9.68533        2.73461        1.39702
C         -5.91749       -0.70275        0.83806
C         -7.17366       -1.40599        0.98096
C         -8.33596       -0.74806        1.14379
C         -4.74324       -1.39596        0.67336
C         -3.49423       -0.73574        0.53030
C         -2.29780       -1.42743        0.36302
C         -1.07552       -0.75412        0.22359
C          0.14269       -1.44682        0.05382
C          1.33577       -0.76430       -0.08158
C          2.59024       -1.43823       -0.25517
F          2.55672       -2.78044       -0.28105
C          3.76674       -0.78425       -0.38906
C          1.36213        0.67976       -0.05243
C          2.62411        1.35261       -0.19683
C          3.77390        0.64766       -0.35786
C          0.17130        1.36356        0.11363
C         -1.06084        0.68891        0.25440
H         -2.25962        2.46612        0.44682
H         -4.66130        2.48333        0.75216
H         -6.39475        3.46180        0.99599
H        -10.51596        0.76655        1.45634
H        -10.63536        3.24043        1.52972
H         -7.15365       -2.49208        0.95306
H         -9.27022       -1.29216        1.24965
H         -4.76373       -2.48319        0.65095
H         -2.30858       -2.51468        0.33965
H          0.13784       -2.53178        0.02994
H          4.68469       -1.34629       -0.51760
H          2.63727        2.43831       -0.17411
H          4.72210        1.16450       -0.46608
H          0.17957        2.45078        0.13715
