37
anti_S_O_benz_3-CN.log	Energy: -885341.8090819
C         -3.85978        0.34860        0.93950
C         -4.85022       -0.48139        0.40209
C         -6.23106       -0.25117        0.67263
C         -7.15708       -1.09144        0.12247
C         -8.60849       -1.19514        0.15221
C         -9.51614       -0.34791        0.84143
N        -10.23701        0.35792        1.41317
C         -8.92435       -2.26780       -0.61358
C         -6.74133       -2.17374       -0.70398
O         -7.84016       -2.87665       -1.14069
C         -5.44574       -2.44790       -1.00039
C         -4.45391       -1.58692       -0.43989
C         -3.09375       -1.79124       -0.68998
C         -2.11089       -0.96073       -0.15178
C         -0.72489       -1.17480       -0.41145
C          0.22032       -0.34817        0.12608
C          1.67225       -0.39980       -0.01961
C          2.44072       -1.31097       -0.74594
C          3.82330       -1.18873       -0.75904
C          2.31465        0.62819        0.68764
C          3.70020        0.75758        0.67946
C          4.44815       -0.15942       -0.04970
C         -0.18847        0.74956        0.96293
S          1.18940        1.68338        1.54652
C         -1.49957        0.99295        1.23889
C         -2.50496        0.14101        0.68710
H         -4.15890        1.18043        1.57293
H         -6.52806        0.57986        1.30542
H         -9.87928       -2.70480       -0.86522
H         -5.16600       -3.28214       -1.63435
H         -2.79369       -2.62288       -1.32340
H         -0.43576       -2.00885       -1.04576
H          1.95792       -2.11210       -1.29828
H          4.42227       -1.89639       -1.32333
H          4.18785        1.55611        1.22954
H          5.53016       -0.07227       -0.06630
H         -1.80064        1.82323        1.87115
