50
anti_C_NPh_2-F_diCF3.log	Energy: -1147418.7933237
C         -2.28147       -1.30919        1.79975
C         -3.29181       -0.43399        1.39959
C         -4.61772       -0.56888        1.89876
C         -5.59072        0.30494        1.48443
C         -7.00019        0.46942        1.77730
C         -7.80939       -0.38068        2.70404
F         -8.67561       -1.17392        2.05340
F         -7.01311       -1.18711        3.43064
F         -8.51829        0.35264        3.57798
C         -7.44119        1.52633        1.03278
C         -8.82091        2.12162        0.94638
F         -9.74748        1.28775        1.41574
F         -8.90098        3.26381        1.65024
F         -9.14058        2.40859       -0.32379
C         -5.25481        1.34190        0.54892
N         -6.40900        2.07384        0.29658
C         -6.44391        3.21565       -0.56009
C         -6.29946        3.03564       -1.93340
C         -6.29319        4.14500       -2.77117
C         -6.43872        5.42359       -2.23782
C         -6.58167        5.59419       -0.86374
C         -6.57464        4.49024       -0.01729
C         -3.99700        1.52216        0.04794
C         -2.97262        0.62650        0.46516
C         -1.66496        0.74357       -0.00589
C         -0.65089       -0.13482        0.39633
C          0.67551       -0.02089       -0.07822
C          1.66932       -0.89323        0.32452
C          3.01987       -0.78304       -0.15395
C          3.95094       -1.66514        0.27474
F          5.21727       -1.57798       -0.16101
C          1.34801       -1.95283        1.25653
C          2.39403       -2.85159        1.66501
C          3.65899       -2.71881        1.19348
C          0.05558       -2.07642        1.72897
C         -0.96971       -1.19185        1.32577
H         -2.52039       -2.10545        2.50122
H         -4.83765       -1.36331        2.60144
H         -6.19933        2.03083       -2.33138
H         -6.18313        4.00952       -3.84244
H         -6.43989        6.28795       -2.89451
H         -6.69123        6.58985       -0.44587
H         -6.67382        4.60851        1.05601
H         -3.77221        2.32218       -0.65017
H         -1.42511        1.54024       -0.70641
H          0.91472        0.77614       -0.77838
H          3.29026        0.00123       -0.85306
H          2.15016       -3.64615        2.36471
H          4.45938       -3.38727        1.49091
H         -0.18462       -2.87322        2.42956
