58
anti_O_NPh_p-CNbenz_m-OMebenz.log	Energy: -983381.9763089
C         -3.16130       -2.11130       -1.25403
C         -4.13836       -1.22576       -0.79291
C         -5.52386       -1.44153       -1.05814
C         -6.45124       -0.55673       -0.59114
C         -7.89809       -0.47701       -0.69421
C         -8.86299       -1.27945       -1.28610
C        -10.20728       -0.93065       -1.19569
C         -8.29757        0.68875       -0.00820
C         -9.62931        1.05295        0.10589
C        -10.58290        0.22898       -0.49953
O        -11.86695        0.64196       -0.35492
C        -12.89130       -0.14124       -0.92506
C         -6.03535        0.59251        0.17311
N         -7.17205        1.32664        0.51270
C         -7.17747        2.53154        1.25644
C         -7.75034        3.68246        0.71476
C         -7.76330        4.86084        1.45328
C         -7.18697        4.90154        2.72014
C         -6.60576        3.75389        3.25320
C         -6.60880        2.56602        2.53004
C         -4.72308        0.84865        0.44271
C         -3.73640       -0.06531       -0.03712
C         -2.37671        0.13585        0.20701
C         -1.39817       -0.74892       -0.25470
C         -0.01271       -0.52330        0.00664
C          0.90936       -1.41311       -0.46287
C          2.35897       -1.52612       -0.40559
C          3.37913       -0.76966        0.15174
C          4.69665       -1.21421       -0.00773
C          5.77420       -0.45241        0.55793
N          6.64381        0.16339        1.01492
C          2.67088       -2.70122       -1.10519
C          3.96784       -3.15875       -1.27452
C          4.98365       -2.39597       -0.71360
C          0.48270       -2.55626       -1.20758
O          1.56154       -3.32475       -1.58823
C         -0.81437       -2.82800       -1.48975
C         -1.80200       -1.91079       -1.00920
H         -3.47055       -2.98497       -1.82354
H         -5.82192       -2.31136       -1.63772
H         -8.57667       -2.18153       -1.81915
H        -10.95125       -1.56318       -1.66387
H         -9.95221        1.93613        0.64456
H        -13.82571        0.36645       -0.68315
H        -12.90904       -1.15290       -0.50020
H        -12.78838       -0.20807       -2.01563
H         -8.17733        3.64616       -0.28260
H         -8.21412        5.75338        1.03043
H         -7.19100        5.82505        3.29070
H         -6.15968        3.77797        4.24274
H         -6.17877        1.65996        2.94545
H         -4.41519        1.72568        1.00321
H         -2.06763        1.01053        0.77517
H          0.28552        0.35342        0.57499
H          3.17238        0.14402        0.69870
H          4.17426       -4.07139       -1.82105
H          6.01635       -2.71048       -0.81763
H         -1.10340       -3.70539       -2.05823
