46
anti_O_NPh_diCN_3-CF3.log	Energy: -988060.0887426
C          0.54266       -1.38972        1.83468
C         -0.83339       -1.31140        1.59720
C         -1.77001       -1.92439        2.47448
C         -3.10858       -1.82166        2.20625
C         -4.29643       -2.32710        2.85395
C         -4.34299       -3.12508        4.10044
F         -3.63578       -4.26672        3.99019
F         -3.81677       -2.45713        5.14515
F         -5.60348       -3.45888        4.42679
C         -5.36290       -1.91862        2.12030
C         -3.56369       -1.09511        1.05089
N         -4.95576       -1.17268        1.03616
C         -5.82461       -0.60810        0.06755
C         -5.70954        0.73985       -0.27175
C         -6.56926        1.28448       -1.21922
C         -7.55386        0.49718       -1.81085
C         -7.67186       -0.84424       -1.45811
C         -6.80209       -1.40367       -0.52805
C         -2.70161       -0.50516        0.17040
C         -1.30472       -0.59967        0.43065
C         -0.36811       -0.01481       -0.42505
C          1.00644       -0.09365       -0.18855
C          1.94076        0.51259       -1.07730
C          3.27437        0.40509       -0.79758
C          4.49265        0.86702       -1.43350
C          4.59929        1.62479       -2.62902
N          4.64671        2.24364       -3.60791
C          5.51438        0.42532       -0.64836
C          6.91755        0.59461       -0.80389
N          8.05752        0.74269       -0.94694
C          3.71479       -0.29988        0.35978
O          5.08789       -0.27498        0.43117
C          2.87948       -0.89853        1.24463
C          1.47799       -0.80463        0.98132
H          0.89320       -1.92581        2.71331
H         -1.41540       -2.47309        3.34145
H         -6.41639       -2.08389        2.29709
H         -4.96150        1.35514        0.21792
H         -6.47821        2.33339       -1.48345
H         -8.22768        0.92838       -2.54428
H         -8.43423       -1.46463       -1.91871
H         -6.86708       -2.45687       -0.27185
H         -3.05147        0.01826       -0.71342
H         -0.71916        0.51977       -1.30462
H          1.58947        1.04612       -1.95542
H          3.24925       -1.42745        2.11598
