56
anti_C_C_p-OMebenz_p-OMebenz.log	Energy: -867642.4371837
C         -1.95077        1.31921        0.49601
C         -3.13295        0.61572        0.73887
C         -4.39257        1.26741        0.81827
C         -5.56196        0.58522        1.05672
C         -6.87293        1.25121        1.14059
C         -7.02453        2.63105        0.98073
C         -8.27164        3.23936        1.06432
O         -8.28060        4.58614        0.88997
C         -9.51758        5.25730        0.96505
C         -8.02600        0.46877        1.39230
C         -9.27295        1.09964        1.47314
C         -9.41347        2.46709        1.31391
C         -5.50040       -0.85027        1.23324
C         -6.72008       -1.58712        1.48692
C         -7.90985       -0.96364        1.56211
C         -4.29081       -1.50140        1.15995
C         -3.07767       -0.81063        0.91425
C         -1.84386       -1.46171        0.83800
C         -0.66168       -0.75822        0.59513
C          0.59794       -1.40991        0.51570
C          1.76731       -0.72775        0.27709
C          3.07823       -1.39378        0.19290
C          3.22967       -2.77380        0.35143
C          4.47679       -3.38209        0.26780
O          4.48561       -4.72905        0.44061
C          5.72303       -5.39969        0.36832
C          4.23144       -0.61120       -0.05779
C          5.47839       -1.24208       -0.13871
C          5.61877       -2.60968        0.01938
C          1.70579        0.70779        0.10090
C          2.92556        1.44472       -0.15208
C          4.11539        0.82130       -0.22684
C          0.49621        1.35892        0.17420
C         -0.71696        0.66813        0.41975
H         -1.99096        2.39821        0.36309
H         -4.39857        2.34413        0.68146
H         -6.17839        3.27938        0.78550
H         -9.29726        6.31247        0.79907
H         -9.98325        5.13719        1.95182
H        -10.21415        4.90852        0.19167
H        -10.15500        0.49445        1.66681
H        -10.39657        2.91763        1.38376
H         -6.64722       -2.66359        1.61599
H         -8.81828       -1.52910        1.75369
H         -4.25810       -2.58047        1.29437
H         -1.80367       -2.54071        0.97090
H          0.60395       -2.48660        0.65275
H          2.38339       -3.42230        0.54542
H          5.50290       -6.45483        0.53479
H          6.41804       -5.04990        1.14264
H          6.19041       -5.28022       -0.61772
H          6.36054       -0.63679       -0.33161
H          6.60184       -3.06026       -0.05063
H          2.85275        2.52124       -0.28079
H          5.02392        1.38686       -0.41766
H          0.46353        2.43802        0.04007
