30
anti_S_S_C_diCl.log	Energy: -1510545.1896689
C          1.09184       -1.27610       -0.00153
C          2.26410       -0.51691       -0.00133
C          3.54859       -1.13045       -0.00212
C          4.67768       -0.35829       -0.00190
C          6.06739       -0.77162       -0.00258
Cl         6.53426       -2.43127       -0.00388
C          6.93091        0.26531       -0.00211
Cl         8.64180        0.17908       -0.00266
C          4.56996        1.07470       -0.00087
S          6.15513        1.84275       -0.00076
C          3.36046        1.70279       -0.00010
C          2.16666        0.92148       -0.00032
C          0.90454        1.51623        0.00043
C         -0.26948        0.75710        0.00023
C         -1.55440        1.36789        0.00098
C         -2.68963        0.59936        0.00076
C         -4.07657        1.01678        0.00141
C         -4.93590       -0.01953        0.00091
C         -2.57519       -0.83597       -0.00024
S         -4.16322       -1.59156       -0.00030
C         -1.36363       -1.46366       -0.00099
C         -0.17189       -0.68149       -0.00078
H          1.16623       -2.36113       -0.00229
H          3.62405       -2.21399       -0.00289
H          3.28521        2.78636        0.00068
H          0.83069        2.60140        0.00120
H         -1.62427        2.45258        0.00174
H         -4.38561        2.05542        0.00219
H         -6.01702        0.03083        0.00121
H         -1.28573       -2.54708       -0.00174
