39
anti_O_O_diCN_m-CNbenz.log	Energy: -798381.8553955
C         -2.66724       -1.95036        0.48799
C         -1.65747       -1.00890        0.29152
C         -0.28797       -1.40500        0.18970
C          0.66776       -0.45185       -0.00241
C          2.11418       -0.45972       -0.15049
C          3.09664       -1.44595       -0.15459
C          4.42083       -1.06708       -0.32822
C          2.47742        0.88258       -0.32001
C          3.78394        1.29358       -0.49498
C          4.75725        0.28727       -0.49618
C          6.13655        0.64904       -0.67392
N          7.25002        0.93708       -0.81698
C          0.29568        0.92863       -0.10008
O          1.39863        1.72123       -0.29157
C         -0.98217        1.36917       -0.01205
C         -2.00691        0.38970        0.18972
C         -3.34654        0.75604        0.29136
C         -4.36342       -0.18679        0.48865
C         -5.72510        0.21450        0.58901
C         -6.67783       -0.74833        0.78142
C         -8.11988       -0.74383        0.92911
C         -8.97829        0.38642        0.90644
N         -9.64738        1.33241        0.88236
C         -8.48167       -2.04677        1.09386
C         -9.77102       -2.61556        1.28215
N        -10.82906       -3.06152        1.43493
C         -6.30823       -2.11940        0.87826
O         -7.42480       -2.89596        1.06905
C         -5.02944       -2.56646        0.79107
C         -4.01311       -1.58538        0.59029
H         -2.40018       -3.00161        0.56410
H         -0.03108       -2.45761        0.26696
H          2.83712       -2.49150       -0.02496
H          5.20849       -1.81196       -0.33605
H          4.04342        2.33729       -0.62445
H         -1.22991        2.42198       -0.09024
H         -3.61414        1.80699        0.21543
H         -5.99104        1.26445        0.51312
H         -4.78306       -3.61944        0.86938
