53
anti_C_NPh_3-Cl_m-CF3benz.log	Energy: -1258507.5595172
C         -2.96937       -1.67715       -0.01281
C         -1.90219       -0.78719       -0.00858
C         -0.55047       -1.24592       -0.09808
C          0.47179       -0.34652       -0.08798
C          1.91747       -0.48057       -0.17375
C          2.76801       -1.57548       -0.27523
C          4.14050       -1.36476       -0.31907
C          2.45090        0.82182       -0.12038
C          3.82152        1.04768       -0.14957
C          4.65215       -0.06474       -0.25255
C          6.13879        0.14438       -0.35907
F          6.82886       -0.86936        0.18986
F          6.53195        0.23391       -1.64364
F          6.53380        1.27579        0.24927
C          0.19926        1.06722        0.01604
N          1.41649        1.74759       -0.00568
C          1.57407        3.15397        0.06843
C          1.05496        3.85476        1.15710
C          1.20368        5.23588        1.22201
C          1.88660        5.91620        0.21703
C          2.41223        5.21177       -0.86278
C          2.24784        3.83322       -0.94657
C         -1.06919        1.55809        0.09125
C         -2.16264        0.63542        0.08369
C         -3.48011        1.07196        0.16326
C         -4.56220        0.17584        0.15893
C         -5.89775        0.62156        0.24078
C         -6.96010       -0.26510        0.23734
C         -8.34215        0.13869        0.31924
Cl        -8.72563        1.84369        0.42994
C         -9.35969       -0.76011        0.31343
C         -6.69958       -1.68593        0.14739
C         -7.80160       -2.60506        0.14402
C         -9.08098       -2.15955        0.22396
C         -5.39031       -2.12925        0.06642
C         -4.30056       -1.23693        0.06919
H         -2.77041       -2.74441       -0.08203
H         -0.35905       -2.31281       -0.17803
H          2.36711       -2.58374       -0.31396
H          4.81967       -2.20610       -0.39499
H          4.23311        2.04816       -0.08512
H          0.54393        3.31164        1.94593
H          0.79597        5.77969        2.06854
H          2.00890        6.99319        0.27538
H          2.94150        5.73733       -1.65151
H          2.63260        3.27819       -1.79667
H         -1.26745        2.62337        0.15187
H         -3.68251        2.13835        0.23101
H         -6.08649        1.68801        0.30775
H        -10.38619       -0.41635        0.37667
H         -7.58638       -3.66777        0.07589
H         -9.91156       -2.85803        0.22113
H         -5.19568       -3.19731       -0.00127
