48
anti_C_NPh_2-F_3-OMe.log	Energy: -796376.1283305
C         -2.27369       -1.54644       -1.02477
C         -3.23306       -0.69915       -0.47508
C         -4.62485       -0.89470       -0.71364
C         -5.53329       -0.04452       -0.14773
C         -6.97592        0.05694       -0.21340
O         -7.80638       -0.77207       -0.90278
C         -7.98566       -2.03607       -0.28253
C         -7.34641        1.13451        0.51888
C         -5.09408        1.05208        0.68002
N         -6.22839        1.75390        1.07673
C         -6.26983        2.92566        1.86262
C         -7.06767        3.99990        1.46460
C         -7.13157        5.14448        2.25137
C         -6.38673        5.23540        3.42400
C         -5.58663        4.16498        3.81469
C         -5.53440        3.00698        3.04697
C         -3.77011        1.29394        0.91631
C         -2.80139        0.41355        0.34821
C         -1.43772        0.60289        0.56407
C         -0.47097       -0.24945        0.01198
C          0.91158       -0.06041        0.23014
C          1.85763       -0.90700       -0.31880
C          3.26555       -0.72064       -0.10108
C          4.14523       -1.58035       -0.66360
F          5.46482       -1.42166       -0.47090
C          1.42373       -2.01670       -1.13878
C          2.41984       -2.88697       -1.70204
C          3.74234       -2.68240       -1.47643
C          0.07301       -2.21325       -1.36032
C         -0.90229       -1.35657       -0.80587
H         -2.59790       -2.38030       -1.64386
H         -4.94832       -1.70566       -1.36044
H         -8.62925       -2.61930       -0.94358
H         -8.46738       -1.92504        0.69732
H         -7.02993       -2.55809       -0.14942
H         -8.33736        1.51591        0.71871
H         -7.62048        3.93951        0.53201
H         -7.75518        5.97539        1.93576
H         -6.43047        6.13449        4.03049
H         -5.01073        4.22204        4.73342
H         -4.94236        2.15669        3.36935
H         -3.43825        2.14078        1.50802
H         -1.11137        1.43815        1.17989
H          1.23542        0.77499        0.84674
H          3.62022        0.10314        0.50938
H          2.09152       -3.71971       -2.31796
H          4.50617       -3.32921       -1.89381
H         -0.25163       -3.04822       -1.97771
