31
anti_S_O_3-CN_2-Cl.log	Energy: -1077343.3236791
C          1.21054        1.61344        0.27515
C          0.05147        0.85869        0.07976
C         -1.24323        1.44295        0.22091
C         -2.35074        0.66640        0.02011
C         -3.78195        0.88062        0.06741
C         -4.32608       -0.31283       -0.23587
Cl        -5.96163       -0.78255       -0.36208
C         -2.19066       -0.71208       -0.32643
O         -3.42140       -1.29944       -0.48020
C         -0.99356       -1.32987       -0.47634
C          0.17930       -0.53840       -0.27147
C          1.45407       -1.08909       -0.40423
C          2.61240       -0.33124       -0.20811
C          3.90767       -0.90255       -0.34614
C          5.02010       -0.13039       -0.14677
C          6.42398       -0.50478       -0.23500
C          6.85602       -1.82358       -0.56521
N          7.17265       -2.90571       -0.83668
C          7.26656        0.52409        0.02731
C          4.88406        1.25495        0.20142
S          6.46128        2.01599        0.40025
C          3.66134        1.84284        0.34399
C          2.48636        1.06102        0.14185
H          1.11545        2.66420        0.53933
H         -1.32866        2.49280        0.48501
H         -4.31597        1.79034        0.29410
H         -0.91826       -2.37901       -0.74019
H          1.55106       -2.13944       -0.66822
H          4.00668       -1.95225       -0.61000
H          8.34780        0.48327        0.02150
H          3.56246        2.89177        0.60770
