37
anti_C_O_2-F_3-OMe.log	Energy: -663895.5878956
C         -2.48775        0.19698        1.59304
C         -3.69109       -0.29891        1.10066
C         -4.92364       -0.07089        1.78845
C         -6.07385       -0.57941        1.26198
C         -7.46930       -0.56334        1.64897
O         -7.89813        0.05598        2.76385
C         -9.28974       -0.02944        2.98983
C         -8.14418       -1.25454        0.70364
C         -6.05030       -1.32764        0.04358
O         -7.30875       -1.73239       -0.28685
C         -4.91501       -1.57850       -0.65600
C         -3.68602       -1.06089       -0.13464
C         -2.47761       -1.27351       -0.79050
C         -1.26279       -0.77407       -0.29485
C         -0.03590       -0.98883       -0.95833
C          1.15657       -0.49225       -0.46156
C          2.40894       -0.70691       -1.13112
C          3.54350       -0.19748       -0.59877
F          4.72327       -0.38804       -1.21064
C          1.14897        0.26688        0.76877
C          2.39573        0.77583        1.27136
C          3.56224        0.55493        0.61369
C         -0.04747        0.48410        1.42853
C         -1.26897       -0.01727        0.93181
H         -2.49106        0.76821        2.51882
H         -4.93029        0.49861        2.71270
H         -9.48952        0.50818        3.91673
H         -9.60468       -1.07628        3.09496
H         -9.84832        0.43482        2.16607
H         -9.18736       -1.49782        0.57936
H         -4.92719       -2.14967       -1.57806
H         -2.47186       -1.84435       -1.71626
H         -0.03288       -1.56014       -1.88373
H          2.44484       -1.27286       -2.05603
H          2.38744        1.34608        2.19616
H          4.51130        0.93157        0.97890
H         -0.05166        1.05546        2.35434
