39
anti_C_S_diCF3_diF.log	Energy: -1279847.6076951
C         -2.65821        1.00725        0.95365
C         -3.85362        0.34331        0.70532
C         -5.11775        0.96941        0.92642
C         -6.26993        0.28501        0.67076
C         -7.63484        0.72550        0.82371
F         -7.93647        1.94577        1.26652
C         -8.53518       -0.20920        0.47841
F         -9.85064       -0.08778        0.51546
C         -6.22527       -1.06884        0.17788
S         -7.84349       -1.73266       -0.07277
C         -5.04493       -1.70430       -0.04704
C         -3.81599       -1.01646        0.21027
C         -2.58829       -1.62852       -0.00598
C         -1.37712       -0.96026        0.24378
C         -0.13502       -1.58747        0.02155
C          1.07161       -0.94157        0.26245
C          2.37420       -1.55700        0.04357
C          2.34696       -2.98536       -0.47775
F          1.68467       -3.78559        0.38101
F          1.69674       -3.04215       -1.65683
F          3.53715       -3.54500       -0.67470
C          3.52118       -0.85002        0.30586
C          4.93803       -1.38467        0.11563
F          5.19065       -1.70779       -1.15898
F          5.85183       -0.45589        0.45491
F          5.18522       -2.45017        0.88792
C          1.02176        0.41448        0.75654
C          2.24964        1.09748        1.01145
C          3.44173        0.49536        0.79681
C         -0.19299        1.04080        0.97885
C         -1.41559        0.39031        0.73554
H         -2.68346        2.02872        1.32555
H         -5.15468        1.98902        1.29758
H         -5.01088       -2.72435       -0.41838
H         -2.55922       -2.64993       -0.37788
H         -0.16003       -2.60310       -0.34817
H          2.21137        2.11728        1.38352
H          4.36033        1.02921        0.99558
H         -0.20087        2.06238        1.35113
