39
anti_C_S_2-OMe_diCN.log	Energy: -920039.3746951
C         -2.73499        0.81522        1.23031
C         -3.93746        0.24180        0.82036
C         -5.19030        0.82747        1.15391
C         -6.35264        0.23819        0.73515
C         -7.71689        0.66911        0.96530
C         -8.03986        1.84199        1.70813
N         -8.25180        2.80384        2.31927
C         -8.63910       -0.16142        0.39957
C        -10.05047       -0.00340        0.45240
N        -11.20358        0.11184        0.48651
C         -6.31500       -0.97095       -0.04082
S         -7.93622       -1.52232       -0.45048
C         -5.13831       -1.56608       -0.38314
C         -3.90789       -0.97515        0.03882
C         -2.67983       -1.54433       -0.28522
C         -1.46761       -0.96993        0.12558
C         -0.21769       -1.54132       -0.19915
C          0.97389       -0.96932        0.20955
C          2.24613       -1.54998       -0.12025
C          3.40101       -0.95904        0.29966
O          4.65210       -1.40733        0.05453
C          4.78740       -2.59287       -0.69874
C          0.93776        0.24660        0.99037
C          2.18829        0.82578        1.40575
C          3.36783        0.25168        1.07711
C         -0.27532        0.81820        1.31646
C         -1.49919        0.24330        0.90483
H         -2.75722        1.73002        1.81793
H         -5.21737        1.74182        1.74084
H         -5.11287       -2.47971       -0.96948
H         -2.65715       -2.45922       -0.87266
H         -0.19845       -2.45624       -0.78684
H          2.25199       -2.46183       -0.70678
H          5.85845       -2.77964       -0.77894
H          4.35971       -2.47620       -1.70254
H          4.30441       -3.43996       -0.19548
H          2.16691        1.73970        1.99287
H          4.31725        0.67757        1.38383
H         -0.29639        1.73314        1.90430
