56
anti_C_NPh_tetFbenz_benz.log	Energy: -1104059.9434442
C         -2.81593       -1.74902       -0.03166
C         -1.76309       -0.83530       -0.01071
C         -0.42684       -1.24518        0.28230
C          0.57821       -0.32423        0.29695
C          2.00943       -0.41296        0.53927
C          2.85577       -1.46943        0.86147
C          4.20961       -1.21497        1.04963
C          2.52832        0.88849        0.40402
C          3.87980        1.15650        0.60138
C          4.70831        0.08598        0.92289
C          0.29652        1.06287        0.02165
N          1.49307        1.77278        0.09295
C          1.63388        3.16523       -0.12100
C          0.89178        4.06546        0.64433
C          1.02355        5.43217        0.42386
C          1.90856        5.90539       -0.54151
C          2.65549        5.00475       -1.29626
C          2.51255        3.63567       -1.09725
C         -0.96006        1.50303       -0.27618
C         -2.02926        0.55683       -0.29690
C         -3.33707        0.94445       -0.58926
C         -4.39264        0.02591       -0.61039
C         -5.72067        0.42888       -0.90790
C         -6.77271       -0.46289       -0.93207
C         -8.16303       -0.08465       -1.23548
C         -8.58401        1.22146       -1.53394
F         -7.73486        2.25801       -1.56795
C         -9.90364        1.53177       -1.81384
F        -10.24755        2.78700       -2.09048
C         -9.16619       -1.08968       -1.23257
C        -10.49440       -0.75599       -1.51784
F        -11.43526       -1.70771       -1.51349
C        -10.87553        0.53714       -1.80770
F        -12.14180        0.83955       -2.07712
C         -6.49437       -1.85428       -0.64210
C         -7.56833       -2.81970       -0.65804
C         -8.83425       -2.46538       -0.93659
C         -5.21139       -2.25967       -0.35196
C         -4.12540       -1.35358       -0.32406
H         -2.61385       -2.79599        0.18405
H         -0.22854       -2.29424        0.48598
H          2.46198       -2.47627        0.96732
H          4.88363       -2.02777        1.30014
H          4.27299        2.16375        0.51435
H          5.76690        0.26927        1.08124
H          0.22118        3.68701        1.40950
H          0.44172        6.12956        1.01872
H          2.01540        6.97313       -0.70553
H          3.34293        5.36732       -2.05437
H          3.07190        2.92477       -1.69754
H         -1.16221        2.54556       -0.50033
H         -3.54279        1.99008       -0.80705
H         -5.88025        1.47601       -1.11815
H         -7.32475       -3.85505       -0.43622
H         -9.63252       -3.19760       -0.94609
H         -5.02339       -3.30935       -0.13706
