44
anti_S_O_3-OMe_m-OMebenz.log	Energy: -971166.5846098
C         -2.76857       -1.47186       -0.88419
C         -1.63885       -0.86032       -0.34062
C         -0.35983       -0.96711       -0.97174
C          0.71993       -0.35429       -0.40772
C          2.13116       -0.23412       -0.73271
C          2.96356       -0.69507       -1.75402
C          4.30707       -0.36559       -1.72818
C          2.68610        0.54582        0.28230
C          4.02560        0.89722        0.34353
C          4.83738        0.42380       -0.68982
O          6.16485        0.67521       -0.78037
C          6.76346        1.46033        0.22698
C          0.56081        0.38830        0.80860
O          1.75793        0.92661        1.21360
C         -0.62056        0.52812        1.45577
C         -1.77110       -0.10591        0.88443
C         -3.02447       -0.01229        1.48561
C         -4.15824       -0.62602        0.94006
C         -5.43364       -0.52499        1.56076
C         -6.51855       -1.13966        0.99618
C         -7.89204       -1.15647        1.46860
O         -8.17365       -0.49100        2.60784
C         -9.51939       -0.53177        3.03013
C         -8.72656       -1.86152        0.67261
C         -6.38108       -1.88674       -0.21868
S         -7.92211       -2.56930       -0.72323
C         -5.17414       -2.00755       -0.84568
C         -4.02694       -1.37822       -0.28096
H         -2.66746       -2.03962       -1.80663
H         -0.26926       -1.53637       -1.89274
H          2.56715       -1.30448       -2.56029
H          4.98469       -0.70500       -2.50356
H          4.39514        1.50599        1.15835
H          7.81839        1.53565       -0.03828
H          6.67019        0.98727        1.21282
H          6.32617        2.46619        0.26456
H         -0.70338        1.09805        2.37500
H         -3.12720        0.55501        2.40791
H         -5.54360        0.03993        2.48170
H         -9.57200        0.04897        3.95127
H         -9.83791       -1.56384        3.22656
H        -10.18107       -0.08665        2.27563
H         -9.78671       -2.02549        0.80199
H         -5.06879       -2.57364       -1.76688
