51
anti_S_NPh_p-CF3benz_3-CN.log	Energy: -1229269.7852949
C         -3.16409       -2.00497        1.99493
C         -4.18348       -1.30586        1.33498
C         -5.54820       -1.47514        1.69466
C         -6.51091       -0.77301        1.02087
C         -7.95396       -0.69160        1.13998
C         -8.76792       -1.40701        2.05434
N         -9.41205       -2.00343        2.81374
C         -8.38409        0.19855        0.19645
C         -6.14805        0.11958       -0.04189
N         -7.32762        0.69204       -0.52529
C         -7.43590        1.64217       -1.57417
C         -6.83366        1.38982       -2.80641
C         -6.94993        2.32417       -3.82948
C         -7.67906        3.49446       -3.63383
C         -8.28726        3.73427       -2.40492
C         -8.15885        2.81576       -1.36835
C         -4.84889        0.32831       -0.41190
C         -3.83098       -0.39072        0.27471
C         -2.47997       -0.23011       -0.05634
C         -1.47067       -0.92755        0.60398
C         -0.09593       -0.75981        0.26041
C          0.87573       -1.45513        0.92116
C          2.32115       -1.42513        0.71994
C          3.04994       -0.67183       -0.19831
C          4.43306       -0.78329       -0.22939
C          5.23122       -0.01924       -1.24894
F          5.56513       -0.79395       -2.29740
F          4.55282        1.03267       -1.73739
F          6.38058        0.44726       -0.73052
C          3.00035       -2.28495        1.59740
C          4.38814       -2.39929        1.56866
C          5.09990       -1.64337        0.64952
C          0.50983       -2.36548        1.97415
S          1.92183       -3.15206        2.68635
C         -0.78719       -2.55918        2.33763
C         -1.82251       -1.84257        1.66023
H         -3.43224       -2.69367        2.79275
H         -5.81471       -2.15144        2.50194
H         -9.39306        0.50915       -0.03653
H         -6.29346        0.46115       -2.96011
H         -6.48072        2.12807       -4.78847
H         -7.77311        4.21759       -4.43766
H         -8.85275        4.64675       -2.24450
H         -8.60293        3.01024       -0.39675
H         -4.58090        1.02519       -1.19947
H         -2.21134        0.45987       -0.85323
H          0.16190       -0.06790       -0.53747
H          2.54342        0.00139       -0.88157
H          4.90712       -3.06308        2.25215
H          6.18183       -1.71435        0.61539
H         -1.05651       -3.24773        3.13331
