48
anti_S_NPh_2-CF3_3-OMe.log	Energy: -1146851.9678042
C          0.32707        1.56756        1.41470
C          1.68998        1.45154        1.11991
C          2.67538        2.14507        1.87460
C          3.99845        2.00418        1.54969
C          5.21925        2.56804        2.08229
O          5.31403        3.41570        3.14274
C          4.93466        4.74867        2.83607
C          6.25261        2.06297        1.36466
C          4.39746        1.13776        0.47129
N          5.78478        1.18170        0.39185
C          6.60534        0.48085       -0.51962
C          6.40779       -0.88361       -0.74045
C          7.22432       -1.56330       -1.63734
C          8.25347       -0.89794       -2.29837
C          8.45808        0.45882       -2.06315
C          7.63164        1.15234       -1.18591
C          3.48176        0.46868       -0.29458
C          2.09987        0.61329        0.01558
C          1.11662       -0.04734       -0.72760
C         -0.24267        0.07336       -0.43322
C         -1.23566       -0.60392       -1.19565
C         -2.56264       -0.46900       -0.88187
C         -3.71225       -1.06590       -1.52361
C         -4.87499       -0.71152       -0.94510
C         -6.23597       -1.16147       -1.37040
F         -7.02032       -0.12267       -1.70048
F         -6.16334       -1.97227       -2.43569
F         -6.86474       -1.83050       -0.39043
C         -2.95407        0.36278        0.22556
S         -4.70277        0.37405        0.42697
C         -2.03781        1.03072        0.98275
C         -0.65038        0.90459        0.67333
H          0.02226        2.19660        2.24824
H          2.36989        2.77866        2.70268
H          5.60608        5.18248        2.08404
H          5.01023        5.31587        3.76551
H          3.90494        4.79814        2.46080
H          7.31366        2.22440        1.48921
H          5.63013       -1.40750       -0.19437
H          7.06498       -2.62406       -1.80552
H          8.89373       -1.43441       -2.99147
H          9.25579        0.98700       -2.57649
H          7.76732        2.21754       -1.02483
H          3.78020       -0.15869       -1.12821
H          1.42076       -0.67671       -1.56119
H         -0.92833       -1.22967       -2.02964
H         -3.64801       -1.72798       -2.37826
H         -2.33859        1.65733        1.81749
