52
anti_NPh_NPh_2-F_3-Cl.log	Energy: -1144024.2387013
C          0.72349       -1.38690        1.05955
C          2.05491       -0.96011        1.00216
C          2.98566       -1.29112        2.02459
C          4.27907       -0.85410        1.92503
C          5.44280       -0.97989        2.76579
Cl         5.50839       -1.83948        4.26227
C          6.46890       -0.32328        2.17396
C          4.70151       -0.07275        0.79276
N          6.05057        0.22988        0.97191
C          6.87444        0.98555        0.10687
C          6.88711        0.71749       -1.26310
C          7.70535        1.46352       -2.10379
C          8.52923        2.45910       -1.58502
C          8.52460        2.71282       -0.21631
C          7.69212        1.98815        0.62963
C          3.83387        0.28680       -0.20162
C          2.48316       -0.15634       -0.11935
C          1.54951        0.16957       -1.10821
C          0.22110       -0.25655       -1.05034
C         -0.71435        0.07845       -2.07272
C         -2.00992       -0.35339       -1.98278
C         -3.16824       -0.20365       -2.83439
C         -4.16083       -0.87373       -2.21118
F         -5.41915       -1.02294       -2.58375
C         -2.41741       -1.14608       -0.84694
N         -3.76910       -1.45741       -1.02029
C         -4.60436       -2.16400       -0.11896
C         -4.64696       -1.78521        1.22296
C         -5.45190       -2.48902        2.11174
C         -6.23081       -3.55216        1.66283
C         -6.19518       -3.91631        0.31955
C         -5.37559       -3.23348       -0.57221
C         -1.55929       -1.50613        0.14902
C         -0.20553       -1.06138        0.07154
H          0.40397       -1.99261        1.90498
H          2.66304       -1.87964        2.87892
H          7.49600       -0.22198        2.49354
H          6.27052       -0.08339       -1.65785
H          7.71028        1.25224       -3.16875
H          9.17219        3.03372       -2.24422
H          9.16007        3.49031        0.19653
H          7.65964        2.20624        1.69286
H          4.14506        0.90405       -1.03820
H          1.86953        0.77542       -1.95344
H         -0.38301        0.67272       -2.91993
H         -3.24394        0.32802       -3.76981
H         -4.05582       -0.93930        1.55891
H         -5.47968       -2.19490        3.15641
H         -6.86409       -4.09493        2.35759
H         -6.79862       -4.74546       -0.03669
H         -5.32773       -3.52629       -1.61543
H         -1.87747       -2.12086        0.98521
