51
anti_C_NPh_3-Cl_p-CNbenz.log	Energy: -1104927.6989859
C         -2.98212       -1.68740        0.00089
C         -1.91141       -0.80194       -0.00537
C         -0.56177       -1.26765       -0.09719
C          0.46348       -0.37211       -0.09799
C          1.90952       -0.50853       -0.18674
C          2.75104       -1.60424       -0.28546
C          4.13261       -1.38818       -0.33780
C          5.02537       -2.50593       -0.44257
N          5.74700       -3.40993       -0.52763
C          2.44704        0.79588       -0.14527
C          3.82227        1.02005       -0.18604
C          4.65517       -0.08390       -0.28429
C          0.19577        1.04207       -0.00422
N          1.41800        1.71919       -0.03667
C          1.57595        3.12744        0.02947
C          1.08966        3.82806        1.13286
C          1.23709        5.20971        1.19010
C          1.88469        5.88916        0.16131
C          2.37641        5.18426       -0.93411
C          2.21391        3.80484       -1.00906
C         -1.06829        1.54051        0.07433
C         -2.16614        0.62210        0.07854
C         -3.48076        1.06521        0.16133
C         -4.56673        0.17350        0.16773
C         -5.89974        0.62555        0.25269
C         -6.96578       -0.25675        0.25941
C         -8.34560        0.15371        0.34484
Cl        -8.72106        1.86079        0.44686
C         -9.36682       -0.74095        0.34886
C         -6.71154       -1.67908        0.17711
C         -7.81732       -2.59363        0.18403
C         -9.09439       -2.14201        0.26670
C         -5.40447       -2.12857        0.09330
C         -4.31117       -1.24073        0.08581
H         -2.78805       -2.75586       -0.06216
H         -0.37552       -2.33594       -0.16943
H          2.35617       -2.61445       -0.31922
H          4.23105        2.02314       -0.13753
H          5.73055        0.05454       -0.31856
H          0.60416        3.28496        1.93769
H          0.85536        5.75470        2.04783
H          2.00508        6.96669        0.21291
H          2.87670        5.71011       -1.74133
H          2.57141        3.24794       -1.86980
H         -1.26050        2.60726        0.12906
H         -3.67829        2.13286        0.22298
H         -6.08388        1.69315        0.31382
H        -10.39161       -0.39255        0.41443
H         -7.60697       -3.65762        0.12148
H         -9.92789       -2.83694        0.27165
H         -5.21459       -3.19778        0.03145
