36
anti_S_O_benz_3-Cl.log	Energy: -1115869.1141776
C         -3.75481        0.47113        0.96109
C         -4.76384       -0.32590        0.40790
C         -6.13890       -0.07168        0.68221
C         -7.08408       -0.88046        0.11601
C         -8.52801       -0.95827        0.13930
Cl        -9.58500        0.08966        1.00493
C         -8.88192       -1.99862       -0.63945
C         -6.69490       -1.95815       -0.73364
O         -7.80078       -2.62826       -1.18474
C         -5.40263       -2.25077       -1.03242
C         -4.39225       -1.42354       -0.45563
C         -3.03639       -1.65258       -0.70914
C         -2.03524       -0.85512       -0.15496
C         -0.65408       -1.09498       -0.41808
C          0.30946       -0.30060        0.13549
C          1.76017       -0.38252       -0.01053
C          2.50853       -1.29657       -0.75393
C          3.89370       -1.20593       -0.76416
C          2.42559        0.61657        0.71679
C          3.81378        0.71418        0.71162
C          4.54146       -0.20530       -0.03479
C         -0.07511        0.78947        0.99309
S          1.32396        1.68036        1.59538
C         -1.38051        1.05692        1.27331
C         -2.40491        0.23879        0.70512
H         -4.03565        1.29711        1.61059
H         -6.41920        0.75286        1.33098
H         -9.84722       -2.40645       -0.89723
H         -5.13989       -3.07829       -1.68259
H         -2.75447       -2.47829       -1.35860
H         -0.38319       -1.92303       -1.06825
H          2.00791       -2.07551       -1.32194
H          4.47666       -1.91616       -1.34190
H          4.31903        1.49058        1.27737
H          5.62524       -0.14258       -0.04916
H         -1.66297        1.88147        1.92159
