50
anti_O_NPh_tetFbenz_2-CF3.log	Energy: -1217657.8566196
C         -3.17901       -2.47900        1.48614
C         -4.17749       -2.25299        0.59501
C         -5.65195       -2.52788        0.30891
C         -6.59590       -1.41025        0.74931
C         -7.22490       -0.55377        1.68317
C         -7.41250        0.63813        1.00341
C         -8.16664        1.82448        1.49776
F         -8.84498        1.51168        2.61077
F         -7.36278        2.86414        1.81645
F         -9.04599        2.28575        0.59262
C         -6.41911       -0.71666       -0.40431
N         -6.87684        0.56219       -0.28336
C         -6.83230        1.54775       -1.30978
C         -7.27877        1.20217       -2.58337
C         -7.18938        2.12775       -3.61691
C         -6.66897        3.39650       -3.37690
C         -6.22745        3.73336       -2.10028
C         -6.29512        2.80854       -1.06414
C         -5.43795       -1.67347       -1.04243
C         -3.99377       -1.49513       -0.58498
C         -2.80696       -0.93138       -0.92115
C         -1.71640       -1.12546       -0.01058
C         -0.45158       -0.56039       -0.29278
C          0.58582       -0.75539        0.58738
C          1.97773       -0.35132        0.64432
C          2.81735        0.39537       -0.16894
F          2.36975        0.92966       -1.30656
C          4.13775        0.58481        0.21101
F          4.96647        1.29728       -0.55040
C          2.47409       -0.90020        1.83202
C          3.78918       -0.72330        2.23039
F          4.26332       -1.24401        3.35878
C          4.61508        0.02806        1.40152
F          5.88521        0.22446        1.74205
C          0.37999       -1.51772        1.76176
O          1.52916       -1.60229        2.51373
C         -0.81754       -2.08777        2.08347
C         -1.90218       -1.89853        1.19154
H         -3.30227       -3.07276        2.38774
H         -5.99636       -3.56305        0.28531
H         -7.55222       -0.74025        2.69572
H         -7.70311        0.21709       -2.75054
H         -7.53850        1.85892       -4.60902
H         -6.60709        4.12084       -4.18298
H         -5.81443        4.71870       -1.90866
H         -5.93492        3.05762       -0.07354
H         -5.63076       -2.08219       -2.03557
H         -2.64971       -0.35990       -1.83195
H         -0.30936        0.02129       -1.19786
H         -0.94111       -2.66689        2.99222
