33
anti_C_S_3-Cl_2-Cl.log	Energy: -1309196.0491359
C          0.77621        1.73626        0.00102
C         -0.32702        0.84709        0.00055
C         -1.65903        1.31457        0.00046
C         -2.71045        0.42214       -0.00001
C         -4.12969        0.69494       -0.00019
C         -4.86136       -0.43582       -0.00069
Cl        -6.58174       -0.53728       -0.00106
C         -2.43711       -0.98111       -0.00041
S         -3.92299       -1.92034       -0.00098
C         -1.15467       -1.46918       -0.00033
C         -0.07148       -0.55990        0.00015
C          1.27275       -1.00602        0.00024
C          2.33701       -0.13393        0.00069
C          3.71414       -0.63325        0.00076
C          4.68080        0.28897        0.00127
C          7.31882       -0.25061        0.00198
Cl         9.96479       -0.79070        0.00436
C          8.56549        0.22778        0.00418
C          4.42529        1.72366        0.00164
C          5.89180        1.94290        0.00163
C          6.14630        0.59922        0.00174
C          3.19224        2.24498        0.00160
C          2.07952        1.29429        0.00112
H          0.57846        2.80613        0.00132
H         -1.84929        2.38473        0.00077
H         -4.55874        1.68917        0.00005
H         -0.95611       -2.53719       -0.00064
H          1.46379       -2.07710       -0.00006
H          3.88910       -1.70544        0.00052
H          8.80463        1.28536        0.00611
H          6.52084        2.82519        0.00161
H          7.15402       -1.32429        0.00034
H          2.97906        3.30998        0.00177
