40
anti_O_O_3-OMe_benz.log	Energy: -696644.9004252
C         -2.86037       -1.49423       -0.54909
C         -1.72527       -0.80612       -0.11966
C         -0.44082       -1.06164       -0.69312
C          0.64327       -0.36680       -0.24453
C          2.06230       -0.34485       -0.56644
C          2.87981       -1.02684       -1.46359
C          4.23832       -0.72685       -1.48585
C          2.62283        0.61652        0.28227
C          3.97050        0.93154        0.27812
C          4.77293        0.23899       -0.62598
C          0.48667        0.60902        0.79295
O          1.68876        1.19487        1.10126
C         -0.70127        0.89794        1.37718
C         -1.85653        0.18251        0.92484
C         -3.11649        0.41719        1.47132
C         -4.25750       -0.27195        1.04261
C         -5.53587       -0.01495        1.61712
C         -6.61602       -0.71733        1.16038
C         -8.02771       -0.74211        1.47909
O         -8.56590        0.05094        2.42393
C         -9.95776       -0.10529        2.60440
C         -8.59397       -1.66579        0.66979
C         -6.46682       -1.68906        0.12788
O         -7.66915       -2.25986       -0.16453
C         -5.27380       -1.97698       -0.45745
C         -4.12608       -1.26064       -0.00236
H         -2.75753       -2.23816       -1.33605
H         -0.34889       -1.80686       -1.47854
H          2.46557       -1.77644       -2.13107
H          4.89269       -1.24730       -2.17783
H          4.37314        1.68176        0.94919
H          5.83622        0.45536       -0.66206
H         -0.78492        1.64324        2.16085
H         -3.21949        1.16091        2.25829
H         -5.63884        0.72716        2.40280
H        -10.19920       -1.13216        2.91012
H        -10.50079        0.13319        1.68004
H        -10.25100        0.58972        3.39126
H         -9.60694       -2.01752        0.55583
H         -5.18806       -2.72177       -1.24151
