48
anti_S_NPh_3-F_p-CNbenz.log	Energy: -1080077.5690004
C         -2.90261       -1.77264        0.11443
C         -1.84557       -0.86258        0.08363
C         -0.48881       -1.30252        0.03230
C          0.51879       -0.38425        0.00612
C          1.96787       -0.49285       -0.05596
C          2.83423       -1.57331       -0.09428
C          4.21110       -1.32929       -0.13651
C          5.12905       -2.43067       -0.17920
N          5.87111       -3.32133       -0.21403
C          2.47693        0.82356       -0.06468
C          3.84784        1.07594       -0.09559
C          4.70521       -0.01249       -0.13318
C          0.21963        1.02341        0.03313
N          1.42649        1.72705       -0.01151
C          1.55212        3.13995       -0.00553
C          1.03005        3.87743        1.05675
C          1.14659        5.26321        1.05535
C          1.79880        5.91113        0.00928
C          2.32617        5.16991       -1.04479
C          2.19487        3.78527       -1.06144
C         -1.05854        1.49545        0.07105
C         -2.13164        0.55286        0.09988
C         -3.46285        0.96705        0.14349
C         -4.52398        0.05561        0.17389
C         -5.87795        0.48766        0.21896
C         -6.88599       -0.43832        0.24867
C         -8.31423       -0.22983        0.29573
F         -8.81638        1.00756        0.31602
C         -9.05316       -1.35077        0.31625
C         -6.59372       -1.84203        0.23466
S         -8.07055       -2.80362        0.27975
C         -5.30760       -2.29654        0.19129
C         -4.23624       -1.35688        0.15967
H         -2.68174       -2.83767        0.10231
H         -0.27822       -2.36850        0.01068
H          2.46164       -2.59249       -0.08898
H          4.23424        2.08899       -0.08554
H          5.77783        0.14760       -0.15818
H          0.54167        3.35939        1.87625
H          0.73735        5.83667        1.88124
H          1.89524        6.99228        0.01533
H          2.83035        5.67083       -1.86533
H          2.58068        3.19923       -1.88999
H         -1.27551        2.55891        0.07551
H         -3.68467        2.03174        0.15418
H         -6.10589        1.54940        0.22959
H        -10.13120       -1.41668        0.35108
H         -5.08180       -3.35905        0.18033
