39
anti_C_O_diCF3_diF.log	Energy: -1077174.3640124
C         -2.83124        0.98129       -0.12179
C         -3.98291        0.32529        0.29794
C         -5.26649        0.95208        0.20980
C         -6.36419        0.26490        0.63511
C         -7.77908        0.52693        0.71359
F         -8.39529        1.64332        0.33762
C         -8.34372       -0.57470        1.23861
F         -9.58961       -0.85179        1.51557
C         -6.22786       -1.06222        1.16042
O         -7.45949       -1.55933        1.52558
C         -5.04787       -1.71195        1.27156
C         -3.87071       -1.01942        0.83360
C         -2.61919       -1.61565        0.91330
C         -1.45444       -0.95290        0.48901
C         -0.18925       -1.56725        0.57417
C          0.97183       -0.92639        0.15878
C          2.29634       -1.52950        0.23019
C          2.34862       -2.93488        0.80847
F          1.59767       -3.77549        0.06981
F          3.56088       -3.47674        0.88455
F          1.84571       -2.94641        2.05887
C          3.39389       -0.83221       -0.20953
C          4.82588       -1.35949       -0.19514
F          5.25866       -1.62081        1.04475
F          4.96733       -2.46158       -0.94251
F          5.67755       -0.44970       -0.70510
C          0.84876        0.41030       -0.37381
C          2.02846        1.08661       -0.80986
C          3.24223        0.49444       -0.73325
C         -0.38938        1.02398       -0.46131
C         -1.56577        0.37827       -0.04129
H         -2.91079        1.98853       -0.52375
H         -5.34961        1.95719       -0.19076
H         -4.98328       -2.71675        1.67439
H         -2.53453       -2.62271        1.31446
H         -0.15899       -2.56892        0.97995
H          1.93511        2.09252       -1.20910
H          4.12377        1.02152       -1.07022
H         -0.45298        2.03109       -0.86635
