36
anti_O_O_3-F_benz.log	Energy: -687053.2510481
C         -2.94522       -1.72711        0.05364
C         -1.86883       -0.84034        0.06384
C         -0.52191       -1.30576       -0.05378
C          0.50126       -0.40495       -0.03950
C          1.95167       -0.48625       -0.13147
C          2.87391       -1.51981       -0.27099
C          4.22720       -1.20060       -0.32423
C          2.40538        0.83483       -0.04904
C          3.74533        1.17679       -0.09968
C          4.65340        0.12944       -0.23955
C          0.21954        0.99412        0.09277
O          1.37641        1.73032        0.08555
C         -1.03236        1.49942        0.20817
C         -2.12614        0.57492        0.19598
C         -3.44471        1.00931        0.30920
C         -4.52789        0.12161        0.29919
C         -5.86761        0.59003        0.41623
C         -6.88714       -0.32193        0.40026
C         -8.32488       -0.26924        0.48840
F         -9.04248        0.84289        0.62199
C         -8.79410       -1.52738        0.41187
C         -6.61206       -1.71559        0.26899
O         -7.77485       -2.43550        0.27733
C         -5.35553       -2.22033        0.15390
C         -4.27007       -1.29370        0.16706
H         -2.74794       -2.79219       -0.04598
H         -0.33494       -2.37154       -0.15291
H          2.54385       -2.55215       -0.33678
H          4.96243       -1.99143       -0.43273
H          4.06399        2.21079       -0.03312
H          5.71486        0.35329       -0.28350
H         -1.21036        2.56484        0.30673
H         -3.64200        2.07426        0.40880
H         -6.06326        1.65327        0.51550
H         -9.79428       -1.92937        0.43705
H         -5.17586       -3.28559        0.05532
