61
anti_NPh_NPh_3-CN_diOMe.log	Energy: -994926.2174579
C          0.32273        0.16660        1.64068
C         -1.00643       -0.19307        1.41163
C         -2.02309        0.04253        2.38284
C         -3.31524       -0.31687        2.11138
C         -4.54185       -0.23551        2.86357
O         -4.66696        0.28365        4.12442
C         -4.62629        1.70134        4.15199
C         -5.52639       -0.78957        2.09216
O         -6.83305       -0.98784        2.26954
C         -7.40639       -0.51767        3.48241
C         -3.64405       -0.94466        0.85774
N         -5.00718       -1.23249        0.87728
C         -5.75062       -1.81113       -0.18195
C         -5.67605       -1.25306       -1.45830
C         -6.37870       -1.83346       -2.50881
C         -7.17358       -2.95420       -2.28586
C         -7.25610       -3.49919       -1.00698
C         -6.53887       -2.93912        0.04389
C         -2.70514       -1.20611       -0.09516
C         -1.35225       -0.82536        0.15825
C         -0.34723       -1.05668       -0.78000
C          0.98581       -0.69643       -0.55112
C          1.99892       -0.94962       -1.51663
C          3.28849       -0.57697       -1.25075
C          4.53597       -0.70098       -1.98246
C          4.70983       -1.26810       -3.27008
N          4.82842       -1.73786       -4.32511
C          5.51569       -0.15617       -1.20154
C          3.61571        0.06872       -0.01237
N          4.99383        0.31544       -0.02382
C          5.74805        0.94109        1.00048
C          5.32621        2.16033        1.53100
C          6.07667        2.77026        2.52976
C          7.25329        2.18104        2.98566
C          7.67493        0.97009        2.44406
C          6.91977        0.34128        1.45976
C          2.68134        0.31607        0.95349
C          1.33185       -0.06217        0.69963
H          0.58256        0.64112        2.58474
H         -1.75801        0.48937        3.33711
H         -5.48746        2.13078        3.62163
H         -3.70702        2.08436        3.69300
H         -4.65973        1.99616        5.20290
H         -6.91707       -0.96811        4.34891
H         -8.45470       -0.81344        3.44033
H         -7.33316        0.57260        3.54962
H         -5.07096       -0.36616       -1.61810
H         -6.31316       -1.39909       -3.50172
H         -7.72696       -3.40172       -3.10563
H         -7.87256       -4.37464       -0.82690
H         -6.58611       -3.36653        1.03916
H         -2.95896       -1.70027       -1.02765
H         -0.60535       -1.53535       -1.72222
H          1.74329       -1.44196       -2.45087
H          6.57004       -0.04349       -1.41218
H          4.42488        2.62833        1.14870
H          5.74671        3.71873        2.94206
H          7.83957        2.66438        3.76070
H          8.58819        0.50222        2.79823
H          7.22496       -0.61957        1.05640
H          2.94188        0.77898        1.89997
