41
anti_S_O_m-CF3benz_diCN.log	Energy: -1154637.6224145
C         -3.82428        0.33080       -1.23076
C         -4.85730       -0.29133       -0.51859
C         -6.22017       -0.07828       -0.86872
C         -7.18922       -0.71118       -0.13945
C         -8.63776       -0.75013       -0.18080
C         -9.48613       -0.06427       -1.08894
N        -10.14651        0.51114       -1.84785
C         -9.01726       -1.58009        0.83045
C        -10.31942       -1.97532        1.24227
N        -11.38771       -2.28664        1.56400
C         -6.83479       -1.56269        0.94463
O         -7.96612       -2.08340        1.52369
C         -5.55587       -1.80699        1.32872
C         -4.52209       -1.16108        0.58705
C         -3.17478       -1.35255        0.90917
C         -2.15078       -0.73033        0.19620
C         -0.77887       -0.93080        0.53078
C          0.20728       -0.31055       -0.18202
C          1.65312       -0.38590        0.00130
C          2.37260       -1.11512        0.95022
C          3.75617       -1.05673        0.95847
C          2.34748        0.39758       -0.93239
C          3.73667        0.46472       -0.93313
C          4.43124       -0.26927        0.01940
C          5.93375       -0.19676        0.08552
F          6.47662       -1.41675        0.23719
F          6.46514        0.34811       -1.01952
F          6.34086        0.54336        1.13161
C         -0.14028        0.55289       -1.28052
S          1.28453        1.24448       -2.05538
C         -1.43560        0.77443       -1.63651
C         -2.48416        0.13626       -0.90528
H         -4.07888        0.98421       -2.06166
H         -6.47409        0.57430       -1.69852
H         -5.32179       -2.46204        2.16040
H         -2.91948       -2.00587        1.73999
H         -0.53469       -1.58575        1.36300
H          1.85169       -1.72887        1.67868
H          4.32142       -1.62467        1.68943
H          4.26912        1.06925       -1.65834
H         -1.69201        1.42674       -2.46605
