37
anti_S_O_p-CNbenz_diCl.log	Energy: -1462118.6395137
C         -3.79089        0.57993       -0.84203
C         -4.81316       -0.23901       -0.35053
C         -6.18478        0.08793       -0.56128
C         -7.14356       -0.74646       -0.06048
C         -8.58903       -0.76827       -0.05975
Cl        -9.62414        0.39416       -0.77743
C         -8.95068       -1.88073        0.61498
Cl       -10.48839       -2.50175        0.97908
C         -6.77030       -1.92039        0.65839
O         -7.89007       -2.60362        1.06501
C         -5.48574       -2.28693        0.89292
C         -4.46011       -1.43407        0.38150
C         -3.10903       -1.73296        0.57525
C         -2.09355       -0.91235        0.08282
C         -0.71696       -1.22366        0.28442
C          0.25931       -0.40469       -0.20782
C          1.70929       -0.54518       -0.10984
C          2.43857       -1.55324        0.51248
C          3.83292       -1.50250        0.49300
C          4.59012       -2.54088        1.13412
N          5.20095       -3.37902        1.65221
C          2.39165        0.50609       -0.74678
C          3.78354        0.56138       -0.76911
C          4.50222       -0.44689       -0.14675
C         -0.10546        0.78075       -0.93518
S          1.31106        1.68571       -1.47693
C         -1.40617        1.11922       -1.15239
C         -2.44414        0.27795       -0.64684
H         -4.05732        1.47886       -1.39296
H         -6.45114        0.98550       -1.11102
H         -5.23912       -3.18766        1.44422
H         -2.84160       -2.63171        1.12603
H         -0.46079       -2.12419        0.83669
H          1.93644       -2.37590        1.01122
H          4.30111        1.37672       -1.26331
H          5.58655       -0.42642       -0.15025
H         -1.67429        2.01639       -1.70266
