33
anti_S_O_3-CF3_2-F.log	Energy: -1004789.0618128
C          1.22701        1.70054        0.57788
C          0.15458        0.90020        0.17960
C         -1.19574        1.34346        0.32863
C         -2.21597        0.52868       -0.07447
C         -3.66307        0.61371       -0.09001
C         -4.06066       -0.55153       -0.62742
F         -5.26017       -1.00871       -0.87710
C         -1.90681       -0.75209       -0.63739
O         -3.07272       -1.40431       -0.97311
C         -0.65404       -1.23506       -0.80772
C          0.43029       -0.39848       -0.39269
C          1.75430       -0.81217       -0.52981
C          2.82712       -0.00820       -0.13024
C          4.17368       -0.44019       -0.27549
C          5.20417        0.37028        0.12499
C          6.63685        0.13805        0.07159
C          7.23841       -1.11577       -0.47138
F          6.88912       -1.31254       -1.75618
F          8.57810       -1.09640       -0.41434
F          6.81815       -2.19800        0.20960
C          7.36181        1.16431        0.55798
C          4.91853        1.65842        0.69301
S          6.40288        2.50232        1.12524
C          3.64089        2.11117        0.85011
C          2.55437        1.28546        0.44018
H          1.02249        2.67805        1.00877
H         -1.38979        2.32105        0.75976
H         -4.29709        1.41804        0.24708
H         -0.46916       -2.21268       -1.23932
H          1.96114       -1.78913       -0.96042
H          4.37294       -1.41643       -0.70616
H          8.44049        1.21548        0.61905
H          3.43358        3.08669        1.28036
