40
anti_C_O_3-F_p-CNbenz.log	Energy: -746307.2886686
C         -2.98810       -1.70591       -0.07395
C         -1.89949       -0.84550       -0.00873
C         -0.55958       -1.33317       -0.14970
C          0.47931       -0.45686       -0.07954
C          1.92843       -0.56275       -0.17150
C          2.82274       -1.60420       -0.36794
C          4.18982       -1.30580       -0.39735
C          5.14094       -2.36257       -0.59882
N          5.90800       -3.21663       -0.76150
C          2.41065        0.74369       -0.00976
C          3.75878        1.06111       -0.03549
C          4.64843        0.01284       -0.23263
C          0.22760        0.93930        0.13383
O          1.40714        1.64712        0.17281
C         -1.00889        1.46777        0.27500
C         -2.12698        0.57036        0.20577
C         -3.42985        1.02947        0.34020
C         -4.53447        0.16192        0.27451
C         -5.85719        0.62815        0.41075
C         -6.92914       -0.24327        0.34300
C         -8.28626        0.19817        0.47765
F         -8.47860        1.51254        0.67504
C         -9.34557       -0.64176        0.41400
C         -6.71431       -1.65440        0.13042
C         -7.85320       -2.52750        0.06626
C         -9.11355       -2.03810        0.20268
C         -5.41545       -2.11557       -0.00396
C         -4.30872       -1.24493        0.06176
H         -2.81563       -2.76772       -0.23477
H         -0.39561       -2.39502       -0.31038
H          2.48288       -2.62630       -0.49642
H          4.09865        2.08191        0.09281
H          5.71497        0.20775       -0.26091
H         -1.16213        2.52935        0.43514
H         -3.60526        2.09050        0.50109
H         -6.03484        1.68665        0.57116
H        -10.35062       -0.25045        0.52297
H         -7.68440       -3.58833       -0.09389
H         -9.96804       -2.70542        0.15283
H         -5.24080       -3.17697       -0.16458
