50
anti_S_NPh_diOMe_2-CN.log	Energy: -1065112.8274632
C          0.92441        1.69103        0.15995
C         -0.25583        0.93364        0.11937
C         -1.53113        1.55050        0.17593
C         -2.66454        0.77436        0.13475
C         -4.06869        1.07818        0.15556
C         -4.73006       -0.11103        0.07574
C         -6.13928       -0.31559        0.08464
N         -7.28989       -0.45909        0.08619
C         -2.55105       -0.65591        0.03943
N         -3.83618       -1.17965        0.00598
C         -4.17554       -2.55640       -0.06824
C         -3.66224       -3.44219        0.87907
C         -3.98405       -4.79236        0.80204
C         -4.83203       -5.25491       -0.20119
C         -5.35092       -4.36377       -1.13597
C         -5.01527       -3.01525       -1.08137
C         -1.34037       -1.29322       -0.03128
C         -0.15975       -0.50446        0.01051
C          1.11159       -1.09127       -0.05227
C          2.28074       -0.33507       -0.01063
C          3.57131       -0.94054       -0.07294
C          4.69770       -0.16765       -0.02442
C          6.08174       -0.59545       -0.05904
O          6.42482       -1.92098       -0.11878
C          6.43538       -2.54890        1.15616
C          6.95572        0.44196       -0.01449
O          8.29164        0.49105       -0.03095
C          8.99237       -0.63699       -0.54603
C          4.58689        1.26303        0.07359
S          6.17497        2.02709        0.07735
C          3.37900        1.88507        0.13536
C          2.18251        1.10137        0.09858
H          0.84976        2.77338        0.24071
H         -1.59895        2.63271        0.24569
H         -4.53151        2.05132        0.22748
H         -3.02375       -3.06590        1.67212
H         -3.58295       -5.48170        1.53853
H         -5.08983       -6.30808       -0.25254
H         -6.01255       -4.71835       -1.91985
H         -5.40038       -2.31939       -1.81963
H         -1.26788       -2.37224       -0.12304
H          1.18659       -2.17317       -0.13668
H          3.65362       -2.01966       -0.17021
H          5.46901       -2.43676        1.66206
H          7.22163       -2.12625        1.79543
H          6.63593       -3.60755        0.98028
H         10.02322       -0.30418       -0.67008
H          8.57452       -0.94467       -1.50866
H          8.95513       -1.47971        0.14938
H          3.30028        2.96632        0.20712
