65
anti_NPh_NPh_diCF3_p-CNbenz.log	Energy: -1370513.8160402
C         -3.52507       -1.30483       -0.76153
C         -2.36285       -0.56016       -0.57878
C         -1.13691       -0.92609       -1.21533
C         -0.01819       -0.17578       -1.00978
C          1.34858       -0.26473       -1.50052
C          1.99507       -1.15716       -2.33975
C          3.35528       -0.96524       -2.60601
C          4.04653       -1.87426       -3.47382
N          4.60457       -2.60964       -4.17602
C          2.05825        0.81670       -0.93492
C          3.41623        1.00906       -1.18581
C          4.05297        0.10944       -2.02650
C         -0.06518        0.98124       -0.15281
N          1.20813        1.55955       -0.13057
C          1.56855        2.71817        0.60373
C          1.40244        2.74040        1.98830
C          1.74775        3.88114        2.70475
C          2.27593        4.98935        2.04721
C          2.44812        4.95944        0.66590
C          2.08490        3.83023       -0.06058
C         -1.20934        1.38066        0.46814
C         -2.39781        0.60980        0.26986
C         -3.59991        0.95926        0.87761
C         -4.77444        0.21349        0.69640
C         -5.98762        0.59539        1.32487
C         -7.12069       -0.16001        1.13108
C         -8.49043       -0.07222        1.59098
C         -9.04911        0.98293        2.49123
F         -8.17448        1.99532        2.64155
F        -10.18115        1.51835        2.00530
F         -9.32267        0.52080        3.72210
C         -9.15804       -1.14227        1.06296
C        -10.59973       -1.54183        1.22572
F        -11.16307       -0.93830        2.27116
F        -11.31733       -1.22677        0.13364
F        -10.71284       -2.86484        1.41291
C         -7.05521       -1.32403        0.29806
N         -8.31881       -1.90109        0.27322
C         -8.63781       -3.06362       -0.49220
C         -8.11522       -4.29424       -0.10268
C         -8.38889       -5.42474       -0.86403
C         -9.18648       -5.32412       -2.00163
C         -9.70407       -4.08973       -2.38384
C         -9.42314       -2.95125       -1.63540
C         -5.91256       -1.72633       -0.33862
C         -4.73588       -0.95678       -0.14805
H         -3.49352       -2.18454       -1.40058
H         -1.11640       -1.80032       -1.86073
H          1.46590       -1.99378       -2.78437
H          3.96112        1.83130       -0.73564
H          5.10905        0.23000       -2.24326
H          1.00833        1.86327        2.49201
H          1.61505        3.89845        3.78203
H          2.55195        5.87523        2.61046
H          2.85378        5.82292        0.14793
H          2.19145        3.80508       -1.14077
H         -1.23985        2.26295        1.09959
H         -3.63355        1.84010        1.51478
H         -6.00291        1.47957        1.95028
H         -7.50603       -4.35468        0.79360
H         -7.98575       -6.38653       -0.56314
H         -9.40413       -6.20932       -2.59106
H        -10.32260       -4.00873       -3.27199
H         -9.81059       -1.98127       -1.92671
H         -5.89515       -2.60698       -0.97285
