38
anti_S_O_diCN_diCF3.log	Energy: -1269686.6097775
C          0.10265        1.41338        0.20053
C         -1.04807        0.62491        0.29132
C         -2.34407        1.21562        0.24065
C         -3.44250        0.40532        0.33847
C         -4.88058        0.60291        0.32809
C         -5.59108        1.91585        0.23260
F         -4.81086        2.82249       -0.38277
F         -6.72789        1.82367       -0.46707
F         -5.89328        2.40773        1.44155
C         -5.42180       -0.62529        0.48162
C         -6.85122       -1.10054        0.52787
F         -7.63397       -0.18532        1.10403
F         -7.31823       -1.33621       -0.70283
F         -6.93866       -2.23243        1.22848
C         -3.27287       -1.00328        0.48064
O         -4.49679       -1.61211        0.56137
C         -2.07044       -1.62945        0.53130
C         -0.90736       -0.80747        0.43568
C          0.37340       -1.36028        0.48024
C          1.52165       -0.56893        0.38982
C          2.82129       -1.14195        0.43704
C          3.92485       -0.33536        0.34603
C          5.32330       -0.71503        0.37333
C          5.75165       -2.06775        0.50708
N          6.04827       -3.18279        0.61767
C          6.16413        0.35284        0.25833
C          7.58462        0.30137        0.25232
N          8.74353        0.27525        0.24588
C          3.77728        1.08514        0.20299
S          5.33874        1.88921        0.10882
C          2.54857        1.67522        0.15324
C          1.38266        0.85956        0.24588
H         -0.00499        2.48975        0.09155
H         -2.44083        2.28922        0.12770
H         -1.98831       -2.70501        0.64078
H          0.48192       -2.43646        0.58871
H          2.93322       -2.21742        0.54536
H          2.43766        2.74991        0.04505
