56
anti_C_NPh_diCF3_tetClbenz.log	Energy: -2335098.9831841
C         -2.36172       -2.06051       -0.08514
C         -1.38709       -1.06995       -0.07561
C         -0.02304       -1.37915       -0.37501
C          0.91549       -0.38802       -0.35936
C          2.35049       -0.33427       -0.60671
C          3.28984       -1.29901       -0.95235
Cl         2.79579       -2.94650       -1.16683
C          4.62932       -0.94197       -1.12685
Cl         5.80055       -2.14074       -1.55804
C          2.75292        1.01126       -0.43107
C          4.08883        1.38221       -0.59954
Cl         4.60444        3.02276       -0.38180
C          5.01905        0.39563       -0.94905
Cl         6.67786        0.83233       -1.16484
C          0.52285        0.95983       -0.04090
N          1.64865        1.77841       -0.09054
C          1.55667        3.18177        0.15979
C          1.66791        3.65473        1.46384
C          1.53855        5.01735        1.71020
C          1.28894        5.89549        0.65836
C          1.16068        5.41215       -0.64159
C          1.28812        4.05054       -0.89375
C         -0.75936        1.31096        0.25089
C         -1.76161        0.29276        0.24169
C         -3.09099        0.57653        0.53029
C         -4.07986       -0.42208        0.52241
C         -5.42581       -0.12503        0.81739
C         -6.41585       -1.10020        0.81457
C         -7.81598       -0.83023        1.11572
C         -8.15031        0.61554        1.44711
F         -7.82405        1.42163        0.41745
F         -9.42840        0.85737        1.72587
F         -7.44126        1.02885        2.51620
C         -8.73441       -1.85032        1.08875
C        -10.22336       -1.69155        1.38327
F        -10.45072       -1.25967        2.63028
F        -10.82509       -0.86041        0.52278
F        -10.86353       -2.87111        1.27344
C         -6.02777       -2.45403        0.49428
C         -7.02885       -3.47166        0.48346
C         -8.32040       -3.18498        0.76631
C         -4.70861       -2.75824        0.20287
C         -3.70523       -1.77383        0.20642
H         -2.07910       -3.08317       -0.32390
H          0.23780       -2.40348       -0.61069
H          1.86561        2.95438        2.26907
H          1.63423        5.39331        2.72389
H          1.19054        6.95902        0.85273
H          0.96169        6.09579       -1.46078
H          1.19329        3.65428       -1.89974
H         -1.02737        2.33567        0.48648
H         -3.37661        1.59807        0.76931
H         -5.65819        0.90511        1.04865
H         -6.73506       -4.48924        0.24208
H         -9.06446       -3.96889        0.75268
H         -4.44283       -3.78554       -0.03488
