39
anti_S_O_2-Cl_m-CF3benz.log	Energy: -1327311.3402214
C         -2.92372       -1.78979       -0.19495
C         -1.84410       -0.92218       -0.02225
C         -0.50043       -1.36240       -0.22649
C          0.52513       -0.48144       -0.04719
C          1.97405       -0.54875       -0.15584
C          2.89373       -1.54152       -0.48252
C          4.24583       -1.22461       -0.47606
C          2.43137        0.73320        0.16844
C          3.77072        1.07601        0.18249
C          4.67303        0.06772       -0.14732
C          6.14555        0.37713       -0.20765
F          6.88236       -0.62579        0.29975
F          6.55593        0.55883       -1.47557
F          6.45702        1.49141        0.47301
C          0.24851        0.86877        0.34186
O          1.40910        1.59042        0.46870
C         -1.00165        1.34818        0.55120
C         -2.09723        0.44495        0.37017
C         -3.41531        0.85569        0.56488
C         -4.49739       -0.01418        0.39180
C         -5.83903        0.41395        0.59276
C         -6.88092       -0.45937        0.41602
C         -8.29918       -0.21923        0.56993
C         -9.02970       -1.31927        0.31140
Cl       -10.74603       -1.44103        0.38396
C         -6.60985       -1.81789        0.02432
S         -8.09919       -2.74237       -0.13895
C         -5.33967       -2.27066       -0.17890
C         -4.24380       -1.37643        0.00035
H         -2.73080       -2.81867       -0.49055
H         -0.31700       -2.39182       -0.52155
H          2.56438       -2.54442       -0.73447
H          4.98163       -1.98246       -0.72137
H          4.09620        2.07589        0.44119
H         -1.17584        2.37743        0.84545
H         -3.60918        1.88416        0.86043
H         -6.02804        1.44251        0.88828
H         -8.72622        0.73284        0.85923
H         -5.14298       -3.29725       -0.47429
