39
anti_C_O_diF_tetFbenz.log	Energy: -999691.4831381
C         -2.91971       -1.72287       -0.19012
C         -1.85927       -0.83778       -0.04501
C         -0.50673       -1.26577       -0.24407
C          0.50014       -0.36319       -0.09130
C          1.94724       -0.41082       -0.20365
C          2.87053       -1.39777       -0.51036
F          2.47585       -2.64045       -0.78950
C          4.22240       -1.08241       -0.52597
F          5.13080       -2.01087       -0.81771
C          2.38796        0.88486        0.08558
C          3.73040        1.22166        0.07616
F          4.15462        2.45170        0.35040
C          4.64317        0.21738       -0.23460
F          5.94199        0.49600       -0.25592
C          0.20773        0.99597        0.26425
O          1.36368        1.73687        0.36688
C         -1.04396        1.46490        0.46645
C         -2.13201        0.54071        0.31356
C         -3.44761        0.94053        0.50246
C         -4.52446        0.04782        0.35634
C         -5.85992        0.45391        0.54783
C         -6.90441       -0.44155        0.39890
C         -8.26806       -0.05128        0.58854
F         -8.52609        1.21975        0.91881
C         -9.28178       -0.94038        0.43971
F        -10.54950       -0.55587        0.62160
C         -6.64226       -1.81585        0.04268
C         -7.74913       -2.71910       -0.10346
C         -9.02572       -2.29650        0.08838
C         -5.33063       -2.21749       -0.14617
C         -4.25289       -1.32153        0.00044
H         -2.71414       -2.75650       -0.45897
H         -0.30164       -2.29688       -0.51260
H         -1.23032        2.49899        0.73432
H         -3.65537        1.97342        0.77123
H         -6.07014        1.48422        0.81589
H         -7.54749       -3.75169       -0.37144
H         -9.87496       -2.96269       -0.01701
H         -5.12359       -3.25084       -0.41477
