42
anti_S_NPh_2-CN_3-Cl.log	Energy: -1209824.3869926
C          0.52766        0.40883        1.97738
C          1.89303        0.41930        1.67141
C          2.87837        0.51762        2.69118
C          4.20303        0.52304        2.34698
C          5.42716        0.63237        3.09810
Cl         5.53875        0.76620        4.81488
C          6.46336        0.59794        2.22584
C          4.60142        0.42083        0.96682
N          5.99169        0.46176        0.92857
C          6.81110        0.41684       -0.22489
C          6.61740       -0.57807       -1.18396
C          7.43098       -0.61454       -2.31099
C          8.45020        0.32003       -2.47475
C          8.64852        1.30151       -1.50768
C          7.82510        1.36049       -0.38862
C          3.68679        0.34374       -0.04712
C          2.30306        0.33792        0.28707
C          1.31859        0.25507       -0.70208
C         -0.04326        0.24591       -0.39352
C         -1.03717        0.16056       -1.40699
C         -2.36784        0.15272       -1.07404
C         -3.51332        0.07284       -1.94539
C         -4.68792        0.08983       -1.27152
C         -5.98294        0.02468       -1.85682
N         -7.04009       -0.02822       -2.33124
C         -2.76069        0.23149        0.30906
S         -4.51102        0.20431        0.48007
C         -1.84114        0.31481        1.31256
C         -0.45161        0.32436        0.98851
H          0.22319        0.46994        3.01967
H          2.57431        0.59618        3.73097
H          7.52596        0.63148        2.41891
H          5.84529       -1.32561       -1.03304
H          7.27710       -1.38919       -3.05586
H          9.08807        0.28258       -3.35207
H          9.43806        2.03642       -1.63013
H          7.95363        2.14388        0.35222
H          3.98920        0.29686       -1.08827
H          1.62272        0.19575       -1.74476
H         -0.73055        0.10175       -2.44806
H         -3.44962        0.00615       -3.02489
H         -2.14124        0.37435        2.35468
