57
anti_C_NPh_p-CF3benz_2-OMe.log	Energy: -1041957.4916241
C          0.88594        2.51943       -0.93015
C         -0.10283        1.57895       -0.63684
C         -1.48852        1.88115       -0.78743
C         -2.43213        0.93644       -0.48715
C         -3.87270        0.91715       -0.54009
C         -4.25386       -0.32399       -0.12595
O         -5.45538       -0.88131        0.02882
C         -6.55478       -0.03792       -0.26783
C         -2.01106       -0.36224       -0.01728
N         -3.16213       -1.11957        0.19520
C         -3.21111       -2.43635        0.72067
C         -2.56795       -2.71984        1.92542
C         -2.59008       -4.01494        2.43162
C         -3.26940       -5.02180        1.75139
C         -3.92089       -4.73054        0.55566
C         -3.88508       -3.44339        0.03147
C         -0.70104       -0.70661        0.13158
C          0.29649        0.26738       -0.17446
C          1.65478       -0.01869       -0.03765
C          2.64290        0.92659       -0.33306
C          4.02449        0.63792       -0.19354
C          5.00309        1.56231       -0.48118
C          6.43867        1.28089       -0.34125
C          6.92260        0.03916        0.10315
C          8.27747       -0.19811        0.22592
C          8.78935       -1.52879        0.70034
F          7.80073       -2.39057        0.98940
F          9.57054       -2.11391       -0.22676
F          9.54246       -1.39846        1.80852
C          7.37764        2.28673       -0.66082
C          8.75347        2.02438       -0.52946
C          9.20779        0.80015       -0.09229
C          4.59866        2.87103       -0.94254
C          5.61187        3.85463       -1.25189
C          6.92340        3.58134       -1.12039
C          3.26242        3.17134       -1.08440
C          2.24691        2.22940       -0.79080
H          0.58927        3.50669       -1.27806
H         -1.77866        2.86489       -1.14644
H         -4.51938        1.72461       -0.84679
H         -7.44970       -0.63082       -0.08169
H         -6.52728        0.27863       -1.31683
H         -6.54929        0.84521        0.38100
H         -2.05889       -1.92335        2.45889
H         -2.08442       -4.23317        3.36726
H         -3.29129       -6.03061        2.15178
H         -4.45045       -5.51214        0.01957
H         -4.37670       -3.21153       -0.90680
H         -0.40390       -1.69461        0.46904
H          1.95429       -1.00568        0.30877
H          4.28589       -0.35664        0.15435
H          6.23523       -0.75713        0.35922
H          9.46274        2.80870       -0.77945
H         10.27097        0.60656        0.00675
H          5.28343        4.83132       -1.59763
H          7.67266        4.33174       -1.35737
H          2.97314        4.16070       -1.43265
