49
anti_C_O_p-CNbenz_m-CF3benz.log	Energy: -991879.4268953
C         -2.93945       -1.30523        0.73913
C         -1.79061       -0.73036        0.19852
C         -0.49847       -0.99967        0.74849
C          0.59944       -0.41666        0.18954
C          2.02945       -0.44272        0.45520
C          2.84827       -1.07747        1.38487
C          4.21836       -0.85775        1.32475
C          2.60227        0.39388       -0.50891
C          3.96186        0.63005       -0.59188
C          4.76236       -0.01501        0.34791
C          6.24706        0.23808        0.35682
F          6.93766       -0.87989        0.63769
F          6.68781        0.69928       -0.82418
F          6.58247        1.14833        1.28830
C          0.45141        0.45603       -0.93773
O          1.66882        0.93704       -1.34829
C         -0.74216        0.75248       -1.50581
C         -1.91366        0.15429       -0.93978
C         -3.17957        0.40638       -1.46396
C         -4.33263       -0.17225       -0.91944
C         -5.62170        0.08351       -1.45218
C         -6.76049       -0.48079       -0.92342
C         -8.10512       -0.22781       -1.46221
C         -8.32774        0.61191       -2.56174
C         -9.61022        0.83236       -3.04943
C         -9.79881        1.69981       -4.17862
N         -9.95144        2.39995       -5.08995
C         -9.22369       -0.84857       -0.85813
C        -10.51403       -0.61372       -1.36528
C        -10.71871        0.21411       -2.44680
C         -6.62955       -1.36266        0.21351
C         -7.81432       -1.96437        0.78281
C         -9.03896       -1.72307        0.27884
C         -5.38667       -1.62379        0.74542
C         -4.20934       -1.04945        0.20986
H         -2.84704       -1.97020        1.59490
H         -0.41303       -1.66473        1.60329
H          2.42846       -1.73374        2.14038
H          4.87734       -1.34545        2.03439
H          4.37802        1.27955       -1.35191
H         -0.81813        1.41772       -2.35895
H         -3.27476        1.07090       -2.31954
H         -5.67640        0.75148       -2.30585
H         -7.50212        1.10886       -3.05699
H        -11.36094       -1.09901       -0.88854
H        -11.71551        0.39247       -2.83488
H         -7.68940       -2.62373        1.63747
H         -9.91947       -2.18312        0.71832
H         -5.30225       -2.28961        1.60139
