50
anti_O_NPh_3-Cl_p-CF3benz.log	Energy: -1257120.3638358
C         -2.92982       -1.72801        0.15440
C         -1.86939       -0.82200        0.11136
C         -0.51432       -1.26585        0.05364
C          0.49642       -0.35108        0.01556
C          1.94413       -0.46547       -0.05713
C          2.80747       -1.55194       -0.09209
C          4.17778       -1.31677       -0.13983
C          5.13927       -2.46496       -0.23771
F          4.59768       -3.61725        0.19398
F          5.54278       -2.67428       -1.50620
F          6.25243       -2.24774        0.48681
C          2.45801        0.84627       -0.07659
C          3.82981        1.08859       -0.11380
C          4.67825       -0.00846       -0.14750
C          0.20192        1.05815        0.03651
N          1.40995        1.75722       -0.02076
C          1.54204        3.16828       -0.02161
C          1.01162        3.91602        1.02969
C          1.13442        5.30120        1.02090
C          1.80192        5.93991       -0.02114
C          2.33827        5.18911       -1.06382
C          2.20036        3.80509       -1.07347
C         -1.07544        1.53315        0.07929
C         -2.15068        0.59371        0.12078
C         -3.48061        1.01119        0.17037
C         -4.54685        0.10594        0.21302
C         -5.89770        0.55795        0.26386
C         -6.90172       -0.36846        0.30485
C         -8.34609       -0.32693        0.36039
Cl        -9.31776        1.09442        0.39500
C         -8.77970       -1.60203        0.38002
C         -6.59769       -1.76241        0.29644
O         -7.75233       -2.49906        0.34256
C         -5.33312       -2.25483        0.24889
C         -4.26261       -1.31095        0.20541
H         -2.71184       -2.79367        0.14725
H         -0.30636       -2.33250        0.03637
H          2.42384       -2.56641       -0.07455
H          4.22433        2.09865       -0.10722
H          5.75139        0.14960       -0.17142
H          0.51194        3.40583        1.84727
H          0.71814        5.88153        1.83853
H          1.90328        7.02066       -0.02079
H          2.85456        5.68227       -1.88163
H          2.59295        3.21230       -1.89394
H         -1.29037        2.59706        0.07791
H         -3.69841        2.07682        0.17599
H         -6.11335        1.62230        0.26932
H         -9.77330       -2.02135        0.41925
H         -5.13489       -3.32130        0.24363
