41
anti_O_O_2-OMe_p-CNbenz.log	Energy: -754514.3035003
C         -2.67547       -1.91136        0.63140
C         -1.66936       -0.98719        0.33723
C         -0.30056       -1.38375        0.25411
C          0.64908       -0.44773       -0.03577
C          2.09455       -0.45815       -0.20167
C          3.08194       -1.42951       -0.12984
C          4.40805       -1.04426       -0.35784
C          5.45247       -2.02714       -0.28992
N          6.29550       -2.82117       -0.23469
C          2.44690        0.86695       -0.49703
C          3.75285        1.26919       -0.72607
C          4.73578        0.29096       -0.65239
C          0.26559        0.91251       -0.25219
O          1.36560        1.69376       -0.53006
C         -1.01412        1.35311       -0.18768
C         -2.03056        0.39192        0.11504
C         -3.37422        0.75803        0.20166
C         -4.38272       -0.16474        0.49615
C         -5.75155        0.23383        0.57984
C         -6.70684       -0.70116        0.87066
C         -8.14276       -0.69555        1.03741
C         -8.47221       -1.98035        1.32193
O         -9.61556       -2.59624        1.57370
C        -10.76357       -1.76146        1.54979
C         -6.30993       -2.06021        1.08419
O         -7.41417       -2.82833        1.36024
C         -5.03338       -2.50606        1.02022
C         -4.01833       -1.54412        0.71764
H         -2.40186       -2.95079        0.79870
H         -0.03664       -2.42412        0.42312
H          2.84374       -2.46330        0.09654
H          3.99076        2.30191       -0.95205
H          5.77400        0.55375       -0.82348
H         -1.26880        2.39364       -0.35751
H         -3.64735        1.79748        0.03451
H         -6.01246        1.27455        0.41116
H         -8.81246        0.14599        0.95476
H        -11.61080       -2.40801        1.77370
H        -10.88927       -1.30854        0.55993
H        -10.68250       -0.97431        2.30781
H         -4.78071       -3.54718        1.18995
