57
anti_C_NPh_benz_p-CNbenz.log	Energy: -912921.3529235
C         -2.81827       -1.78137       -0.16440
C         -1.77106       -0.86203       -0.12265
C         -0.42653       -1.27746        0.11947
C          0.57197       -0.35013        0.15602
C          2.00935       -0.43684        0.36236
C          2.86651       -1.49625        0.61121
C          4.23006       -1.23227        0.78074
C          5.13864       -2.31222        1.03679
N          5.87323       -3.18568        1.24339
C          2.51516        0.87838        0.27882
C          3.87055        1.15191        0.45757
C          4.71882        0.08426        0.70666
C          0.27572        1.04417       -0.04535
N          1.47387        1.76065        0.03416
C          1.59927        3.16593       -0.10959
C          0.89506        4.01537        0.74350
C          1.01300        5.39296        0.59454
C          1.84537        5.92364       -0.38780
C          2.55326        5.07179       -1.23152
C          2.42398        3.69280       -1.10303
C         -0.98764        1.49214       -0.29089
C         -2.05269        0.54023       -0.33343
C         -3.36875        0.93214       -0.57564
C         -4.41982        0.00838       -0.61798
C         -5.75915        0.40568       -0.86360
C         -6.80023       -0.49441       -0.90631
C         -8.19344       -0.09631       -1.15944
C         -8.57382        1.23891       -1.37821
C         -9.89224        1.58370       -1.61378
C         -9.20059       -1.08797       -1.18616
C        -10.53539       -0.72100       -1.42684
C        -10.88435        0.59818       -1.63908
C         -6.50785       -1.89430       -0.69216
C         -7.58635       -2.85697       -0.73302
C         -8.85580       -2.47675       -0.96595
C         -5.21441       -2.30078       -0.45246
C         -4.13748       -1.38337       -0.40634
H         -2.60422       -2.83604       -0.00537
H         -0.21798       -2.33376        0.26774
H          2.49639       -2.51415        0.67814
H          4.25151        2.16592        0.40915
H          5.77940        0.26125        0.85028
H          0.26509        3.58989        1.51843
H          0.46217        6.05310        1.25734
H          1.94160        6.99942       -0.49599
H          3.19887        5.48043       -2.00265
H          2.95203        3.01941       -1.77123
H         -1.19916        2.54363       -0.45733
H         -3.58507        1.98605       -0.73650
H         -5.93636        1.46502       -1.01969
H         -7.82886        2.02698       -1.36507
H        -10.15437        2.62432       -1.77934
H        -11.29614       -1.49739       -1.44375
H        -11.91959        0.86803       -1.82400
H         -7.34161       -3.90309       -0.56933
H         -9.65629       -3.21135       -0.99389
H         -5.00876       -3.35713       -0.29324
