57
anti_NPh_NPh_2-CF3_diCN.log	Energy: -1120543.4122950
C          0.79403       -0.96444       -1.18903
C          2.12095       -0.58676       -0.95996
C          3.12259       -0.77542       -1.94973
C          4.40987       -0.39268       -1.67909
C          5.63264       -0.42992       -2.44744
C          5.78497       -0.92935       -3.76505
N          5.86930       -1.34647       -4.84431
C          6.61966        0.10482       -1.65384
C          7.99826        0.25929       -1.97303
N          9.11762        0.38672       -2.24424
C          4.74736        0.18906       -0.41253
N          6.11026        0.48231       -0.42858
C          6.84833        1.05786        0.64440
C          7.54850        2.24551        0.44832
C          8.27448        2.79077        1.50187
C          8.28081        2.16673        2.74600
C          7.56819        0.98532        2.93646
C          6.85680        0.42073        1.88405
C          3.81728        0.40194        0.56612
C          2.47244        0.01201        0.31028
C          1.46957        0.19533        1.26553
C          0.14344       -0.18132        1.03633
C         -0.86231        0.01549        2.02311
C         -2.15208       -0.36935        1.76342
C         -3.37770       -0.31777        2.51924
C         -4.34658       -0.85066        1.73366
C         -5.78868       -1.02286        2.08913
F         -5.98985       -0.71409        3.37591
F         -6.58869       -0.22664        1.35549
F         -6.20324       -2.28391        1.89650
C         -2.47971       -0.96803        0.49599
N         -3.83981       -1.24737        0.50161
C         -4.52897       -1.90135       -0.56080
C         -4.22422       -3.22988       -0.85168
C         -4.86839       -3.86715       -1.90597
C         -5.82040       -3.18313       -2.65833
C         -6.12072       -1.85676       -2.36163
C         -5.46817       -1.20734       -1.31866
C         -1.55230       -1.17450       -0.48645
C         -0.20727       -0.78288       -0.23321
H          0.53480       -1.41375       -2.14490
H          2.86191       -1.21439       -2.90856
H          7.52282        2.73561       -0.51960
H          8.82860        3.71122        1.34937
H          8.84301        2.59974        3.56726
H          7.57690        0.49215        3.90326
H          6.31628       -0.51184        2.01168
H          4.08003        0.85845        1.51498
H          1.72909        0.64692        2.22047
H         -0.59496        0.47110        2.97257
H         -3.51315        0.06214        3.52045
H         -3.48891       -3.75143       -0.24700
H         -4.63297       -4.90201       -2.13376
H         -6.32739       -3.68438       -3.47698
H         -6.85881       -1.32006       -2.94926
H         -5.68274       -0.17056       -1.08579
H         -1.81924       -1.62216       -1.43867
