46
anti_C_O_2-CF3_m-OMebenz.log	Energy: -909477.2573573
C         -2.72800       -1.80314       -0.60529
C         -1.66900       -0.98848       -0.22497
C         -0.34191       -1.21611       -0.71624
C          0.66957       -0.39550       -0.31989
C          2.09490       -0.30393       -0.58647
C          3.01388       -1.01797       -1.35738
C          4.33914       -0.62135       -1.36349
C          2.54740        0.78875        0.15331
C          3.86503        1.21726        0.17383
C          4.76524        0.48644       -0.60556
O          6.08497        0.77073       -0.69708
C          6.58280        1.86886        0.03583
C          0.39694        0.68803        0.58459
O          1.54160        1.39320        0.85987
C         -0.82940        0.95954        1.08603
C         -1.91629        0.11160        0.68665
C         -3.20555        0.32157        1.15581
C         -4.27972       -0.50136        0.77301
C         -5.59000       -0.29137        1.24762
C         -6.63940       -1.10907        0.86322
C         -7.97487       -0.89962        1.34389
C         -8.98764       -1.71482        0.95301
C        -10.39005       -1.50942        1.44686
F        -10.49864       -0.46551        2.28265
F        -11.24045       -1.29651        0.42500
F        -10.84079       -2.59658        2.10079
C         -6.39502       -2.20356       -0.04387
C         -7.50253       -3.03581       -0.42570
C         -8.75092       -2.80525        0.05067
C         -5.11221       -2.41934       -0.51655
C         -4.03498       -1.59430       -0.13281
H         -2.54240       -2.62829       -1.28930
H         -0.16545       -2.04265       -1.39886
H          2.69821       -1.87376       -1.94606
H          5.08225       -1.15048       -1.94940
H          4.15350        2.07350        0.76941
H          7.65021        1.91523       -0.18148
H          6.43789        1.72946        1.11459
H          6.10782        2.80750       -0.27640
H         -0.99713        1.78677        1.76721
H         -3.39369        1.14594        1.83980
H         -5.77681        0.53333        1.93177
H         -8.16106       -0.07682        2.02644
H         -7.31848       -3.86016       -1.10913
H         -9.58178       -3.43852       -0.24264
H         -4.92537       -3.24408       -1.20074
