52
anti_C_C_benz_m-OMebenz.log	Energy: -795799.6849609
C         -2.02048        1.31236        0.74452
C         -3.24844        0.64777        0.71173
C         -4.48182        1.33747        0.85848
C         -5.69630        0.69334        0.82804
C         -6.98153        1.39080        0.97886
C         -7.08135        2.77473        1.16739
C         -8.30122        3.41654        1.30849
C         -8.18703        0.64953        0.93524
C         -9.41716        1.29667        1.07753
C         -9.48656        2.67074        1.26360
O        -10.73083        3.19615        1.39070
C        -10.84778        4.58784        1.58278
C         -5.70735       -0.74188        0.63838
C         -6.97521       -1.43973        0.60282
C         -8.14261       -0.78677        0.74228
C         -4.52600       -1.43049        0.49414
C         -3.26737       -0.77830        0.52399
C         -2.06124       -1.46699        0.37879
C         -0.83255       -0.80209        0.41155
C          0.39938       -1.49237        0.26478
C          1.61464       -0.84846        0.29513
C          2.89815       -1.55133        0.14362
C          2.98486       -2.94097       -0.04646
C          4.20615       -3.57501       -0.18601
C          4.10070       -0.80986        0.18880
C          5.33312       -1.46889        0.04550
C          5.39263       -2.83623       -0.14011
C          1.62712        0.58610        0.48499
C          2.89445        1.28266        0.52119
C          4.05979        0.62480        0.38189
C          0.44483        1.27517        0.62929
C         -0.81311        0.62367        0.59927
H         -2.00214        2.39083        0.88642
H         -4.42843        2.41271        0.99829
H         -6.18570        3.38529        1.20765
H         -8.31875        4.49061        1.45207
H        -10.34233        0.72911        1.04443
H        -11.91642        4.79134        1.66036
H        -10.43448        5.14867        0.73457
H        -10.35101        4.91104        2.50667
H         -6.95792       -2.51688        0.45888
H         -9.08526       -1.32654        0.71313
H         -4.55153       -2.50885        0.35244
H         -2.07945       -2.54548        0.23690
H          0.34526       -2.56739        0.12525
H          2.08333       -3.54252       -0.08705
H          4.23976       -4.65050       -0.33170
H          6.24740       -0.88187        0.08296
H          6.35178       -3.33302       -0.24957
H          2.87936        2.35976        0.66518
H          5.00412        1.16208        0.41141
H          0.47091        2.35346        0.77124
