57
anti_S_NPh_p-OMebenz_benz.log	Energy: -1128193.7865377
C         -3.54892        1.19930       -0.00215
C         -4.57536        0.25083        0.00970
C         -5.94761        0.63902        0.00717
C         -6.92384       -0.31446        0.02181
C         -8.37666       -0.25496        0.01053
C         -9.28565        0.79864        0.00096
C        -10.64674        0.51512        0.01006
C         -8.84062       -1.58410        0.02432
C        -10.20091       -1.87910        0.04553
C        -11.09216       -0.81086        0.03573
C         -6.57294       -1.71070        0.04406
N         -7.75103       -2.45696        0.04503
C         -7.82661       -3.87006        0.05882
C         -7.19995       -4.59136        1.07578
C         -7.26697       -5.98037        1.08023
C         -7.97474       -6.65248        0.08703
C         -8.60775       -5.92950       -0.92060
C         -8.52625       -4.54129       -0.94457
C         -5.27465       -2.13246        0.03422
C         -4.23820       -1.15185        0.01943
C         -2.88923       -1.51628        0.01360
C         -1.86519       -0.56706        0.00093
C         -0.49100       -0.94646       -0.00448
C          0.49444       -0.00000       -0.01600
C          1.94310       -0.18900       -0.02300
C          2.65184       -1.38413       -0.01962
C          4.04630       -1.36326       -0.02765
O          4.65045       -2.58082       -0.02354
C          6.05858       -2.62350       -0.03224
C          2.63726        1.03295       -0.03449
C          4.02356        1.05795       -0.04249
C          4.73111       -0.14217       -0.03905
C          0.14228        1.39453       -0.02280
S          1.56564        2.43873       -0.03728
C         -1.15707        1.80397       -0.01831
C         -2.20303        0.83172       -0.00635
H         -3.80861        2.25580       -0.00912
H         -6.19847        1.69650       -0.01173
H         -8.93463        1.82662       -0.00990
H        -11.36866        1.32540        0.00144
H        -10.55458       -2.90419        0.07529
H        -12.15861       -1.01537        0.05119
H         -6.66989       -4.05700        1.85799
H         -6.77520       -6.53800        1.87147
H         -8.03242       -7.73646        0.09807
H         -9.15626       -6.44770       -1.70125
H         -8.99528       -3.97016       -1.73980
H         -5.01643       -3.18676        0.03205
H         -2.62859       -2.57249        0.01895
H         -0.24113       -2.00454        0.00057
H          2.14622       -2.34438       -0.01099
H          6.32723       -3.68054       -0.02770
H          6.48323       -2.13989        0.85722
H          6.47182       -2.15046       -0.93268
H          4.56394        1.99934       -0.05141
H          5.81419       -0.11017       -0.04539
H         -1.41767        2.85863       -0.02376
