50
anti_S_NPh_3-Cl_p-CF3benz.log	Energy: -1459797.5431010
C         -2.89631       -1.77232        0.14888
C         -1.84346       -0.85763        0.11179
C         -0.48467       -1.29090        0.05915
C          0.51889       -0.36834        0.02688
C          1.96763       -0.47144       -0.03965
C          2.83937       -1.55129       -0.07295
C          4.20786       -1.30527       -0.11450
C          5.17912       -2.44554       -0.21026
F          4.64292       -3.60412        0.21114
F          5.59450       -2.64482       -1.47638
F          6.28442       -2.22318        0.52453
C          2.47121        0.84417       -0.05443
C          3.84115        1.09742       -0.08555
C          4.69812        0.00699       -0.11768
C          0.21329        1.03875        0.04895
N          1.41564        1.74691       -0.00164
C          1.53721        3.15917        0.00149
C          1.00002        3.90008        1.05411
C          1.11303        5.28613        1.04916
C          1.77740        5.93224        0.00968
C          2.32051        5.18814       -1.03432
C          2.19249        3.80320       -1.04780
C         -1.06796        1.50400        0.08710
C         -2.13625        0.55662        0.12231
C         -3.46953        0.96476        0.16680
C         -4.52613        0.04847        0.20345
C         -5.88168        0.47611        0.24936
C         -6.89192       -0.44762        0.28543
C         -8.32686       -0.24667        0.33464
Cl        -9.03293        1.33690        0.35723
C         -9.04408       -1.38472        0.36092
C         -6.58741       -1.85098        0.27679
S         -8.05381       -2.82526        0.32874
C         -5.30050       -2.30275        0.23293
C         -4.23140       -1.36179        0.19496
H         -2.67074       -2.83645        0.14099
H         -0.26854       -2.35588        0.04109
H          2.46368       -2.56878       -0.05913
H          4.22768        2.11052       -0.07570
H          5.77010        0.17339       -0.13693
H          0.50292        3.38417        1.86968
H          0.69155        5.86135        1.86771
H          1.87111        7.01367        0.01307
H          2.83444        5.68717       -1.85004
H          2.59056        3.21528       -1.86915
H         -1.29074        2.56627        0.08685
H         -3.69635        2.02843        0.17315
H         -6.10829        1.53852        0.25551
H        -10.12146       -1.46985        0.39824
H         -5.07336       -3.36502        0.22631
