39
anti_C_O_diF_diCF3.log	Energy: -1077183.7134265
C         -2.90992        0.52550       -0.61117
C         -3.96522        0.27364        0.26156
C         -5.28960        0.71377       -0.04269
C         -6.29366        0.44940        0.84543
C         -7.72069        0.71227        0.90621
C         -8.51956        1.46989       -0.10482
F         -7.95198        1.36620       -1.31998
F         -9.77259        1.01011       -0.20690
F         -8.58686        2.77582        0.19008
C         -8.14239        0.19181        2.07881
C         -9.50555        0.11682        2.71639
F        -10.19223       -0.93797        2.26288
F         -9.39131       -0.00218        4.04047
F        -10.21263        1.21876        2.45209
C         -6.00681       -0.26376        2.04892
O         -7.15533       -0.41274        2.78355
C         -4.77796       -0.71399        2.39877
C         -3.70357       -0.44877        1.49192
C         -2.40678       -0.86998        1.76742
C         -1.34271       -0.61576        0.88861
C         -0.02711       -1.04207        1.16785
C          1.00661       -0.78062        0.28829
C          2.34911       -1.20342        0.55157
F          2.59431       -1.87003        1.68590
C          3.35339       -0.93956       -0.32035
F          4.60088       -1.34219       -0.05713
C          0.75676       -0.06196       -0.94022
C          1.85480        0.19265       -1.83157
C          3.10947       -0.23108       -1.53254
C         -0.53153        0.35762       -1.21797
C         -1.60202        0.10203       -0.33457
H         -3.10504        1.06647       -1.53417
H         -5.47691        1.24874       -0.96678
H         -4.60642       -1.25151        3.32469
H         -2.20955       -1.41134        2.68945
H          0.17291       -1.58258        2.08726
H          1.66280        0.73283       -2.75349
H          3.95138       -0.04907       -2.19141
H         -0.72876        0.89911       -2.14018
