40
anti_S_O_p-OMebenz_2-Cl.log	Energy: -1187711.5611421
C         -3.72723        0.75540       -0.67256
C         -4.72338       -0.14245       -0.27242
C         -6.10605        0.18368       -0.39796
C         -7.04623       -0.72486        0.00639
C         -8.49348       -0.76516        0.04062
C         -8.79910       -1.96687        0.56473
Cl       -10.31694       -2.67806        0.89059
C         -6.62504       -1.97937        0.54493
O         -7.72168       -2.73329        0.88418
C         -5.32927       -2.35255        0.69178
C         -4.33051       -1.41967        0.27643
C         -2.96965       -1.71643        0.38996
C         -1.98094       -0.81704       -0.01036
C         -0.59377       -1.12567        0.10890
C          0.35632       -0.22898       -0.28934
C          1.81099       -0.35869       -0.24746
C          2.56284       -1.43323        0.21121
C          3.95566       -1.37169        0.17110
O          4.60419       -2.46914        0.64087
C          6.01327       -2.46568        0.62564
C          2.45937        0.78271       -0.74862
C          3.84368        0.84803       -0.79035
C          4.59476       -0.23097       -0.32967
C         -0.04691        1.04021       -0.83530
S          1.33664        2.03990       -1.28257
C         -1.35961        1.37821       -0.96808
C         -2.37059        0.45589       -0.55767
H         -4.02268        1.71716       -1.08600
H         -6.39156        1.14639       -0.81169
H         -9.19260       -0.00806       -0.27923
H         -5.05354       -3.31622        1.10604
H         -2.67267       -2.67780        0.80310
H         -0.30643       -2.08874        0.52326
H          2.09330       -2.32919        0.60428
H          6.32055       -3.42714        1.03858
H          6.42187       -1.65879        1.24787
H          6.40591       -2.36947       -0.39502
H          4.34895        1.72764       -1.17662
H          5.67590       -0.16905       -0.36682
H         -1.65767        2.33784       -1.38073
