50
anti_O_NPh_p-CF3benz_2-Cl.log	Energy: -1257119.8215860
C         -3.00962       -2.18106        1.72403
C         -4.05341       -1.40684        1.19843
C         -5.40901       -1.66083        1.54151
C         -6.40468       -0.88376        1.00523
C         -7.83920       -0.86954        1.14455
C         -8.28660        0.14414        0.36381
Cl        -9.91600        0.62119        0.09856
C         -6.06486        0.18002        0.09835
N         -7.24967        0.80360       -0.28327
C         -7.34041        1.89948       -1.18377
C         -6.92841        1.73172       -2.50481
C         -6.98544        2.80742       -3.38437
C         -7.46751        4.03990       -2.95105
C         -7.88319        4.19967       -1.63175
C         -7.81037        3.13401       -0.74115
C         -4.77689        0.46984       -0.25485
C         -3.73454       -0.32869        0.29263
C         -2.39224       -0.09361       -0.02715
C         -1.35703       -0.86537        0.49790
C          0.00743       -0.60767        0.15678
C          0.98888       -1.38738        0.69242
C          2.43939       -1.43835        0.59039
C          3.40061       -0.70465       -0.09308
C          4.73804       -1.05727        0.06654
C          5.80187       -0.32604       -0.70299
F          6.13141       -0.97435       -1.83601
F          5.40731        0.90831       -1.05989
F          6.93424       -0.19628        0.01085
C          2.83548       -2.50075        1.41233
C          4.16030       -2.86626        1.58348
C          5.11132       -2.12429        0.89310
C          0.64720       -2.45222        1.58725
O          1.77585       -3.11475        2.01357
C         -0.62264       -2.74920        1.95113
C         -1.67557       -1.94589        1.40350
H         -3.25266       -2.99294        2.40591
H         -5.64139       -2.46890        2.22962
H         -8.45163       -1.53117        1.73786
H         -6.56957        0.76051       -2.83087
H         -6.66288        2.67837       -4.41281
H         -7.51833        4.87624       -3.64132
H         -8.25561        5.16019       -1.28979
H         -8.11275        3.25104        0.29439
H         -4.54042        1.28470       -0.93215
H         -2.14941        0.71915       -0.70832
H          0.24026        0.20620       -0.52447
H          3.12091        0.12569       -0.73202
H          4.43677       -3.69101        2.22983
H          6.16208       -2.37072        1.00101
H         -0.84583       -3.56364        2.63187
