51
anti_S_NPh_C_p-OMebenz.log	Energy: -1031804.7859492
C         -2.90589       -1.74343        0.13145
C         -1.85243       -0.82978        0.09630
C         -0.49286       -1.26234        0.05130
C          0.51167       -0.34155        0.02085
C          1.96110       -0.45349       -0.04089
C          2.81901       -1.54193       -0.06578
C          4.19627       -1.31720       -0.10644
O          4.97313       -2.43663       -0.13379
C          6.37025       -2.27127       -0.16209
C          2.47087        0.85877       -0.06036
C          3.83732        1.08973       -0.08706
C          4.69693       -0.00944       -0.11288
C          0.20951        1.06806        0.03845
N          1.40986        1.77316       -0.01084
C          1.53759        3.18071       -0.01866
C          0.95086        3.94124        0.99418
C          1.07063        5.32655        0.97733
C          1.79245        5.95749       -0.03261
C          2.38614        5.19602       -1.03580
C          2.25149        3.81185       -1.03866
C         -1.07435        1.53076        0.06704
C         -2.14382        0.58457        0.09973
C         -3.47766        0.99231        0.13492
C         -4.53589        0.07711        0.16926
C         -5.89279        0.50218        0.20544
C         -6.91067       -0.41678        0.23982
C         -8.34169       -0.19555        0.27939
C         -9.05011       -1.34021        0.30648
C         -6.59886       -1.82126        0.23906
S         -8.06738       -2.79022        0.28701
C         -5.31151       -2.27349        0.20457
C         -4.24165       -1.33313        0.16850
H         -2.68053       -2.80783        0.12907
H         -0.27609       -2.32738        0.03619
H          2.45105       -2.56268       -0.05038
H          6.79279       -3.27682       -0.17876
H          6.73435       -1.74264        0.72911
H          6.69653       -1.72908       -1.05981
H          4.24032        2.09686       -0.08139
H          5.76508        0.17230       -0.13498
H          0.41081        3.43944        1.79094
H          0.60940        5.91352        1.76581
H          1.89144        7.03852       -0.03807
H          2.94495        5.68154       -1.83016
H          2.68825        3.21287       -1.83176
H         -1.29905        2.59261        0.05964
H         -3.70362        2.05648        0.13567
H         -6.11322        1.56674        0.20543
H         -8.79095        0.79076        0.28627
H        -10.12735       -1.43956        0.33784
H         -5.08287       -3.33558        0.20390
