44
anti_S_O_tetClbenz_diOMe.log	Energy: -2124713.0235672
C         -3.83745       -0.22387       -1.46753
C         -4.88493       -0.51975       -0.58988
C         -6.24833       -0.43045       -1.00321
C         -7.23573       -0.73416       -0.10682
C         -8.68028       -0.76126       -0.13695
O         -9.47362       -0.44574       -1.20189
C         -9.50063       -1.45700       -2.19900
C         -9.07566       -1.13835        1.11112
O        -10.23840       -1.32730        1.71229
C        -11.40997       -1.09468        0.93620
C         -6.89243       -1.11915        1.22485
O         -8.02963       -1.35366        1.95432
C         -5.62201       -1.22227        1.68133
C         -4.56721       -0.92153        0.76195
C         -3.22928       -1.00435        1.14750
C         -2.18637       -0.70869        0.26520
C         -0.82605       -0.79849        0.67693
C          0.19614       -0.50628       -0.19019
C          1.65344       -0.52461       -0.00026
C          2.43265       -0.84737        1.11892
Cl         1.69070       -1.32918        2.61186
C          3.83063       -0.78972        1.05995
Cl         4.77848       -1.19112        2.45023
C          2.32866       -0.14455       -1.17632
C          3.71519       -0.08312       -1.24819
Cl         4.45954        0.39572       -2.73634
C          4.47611       -0.40648       -0.12580
Cl         6.19955       -0.33389       -0.20150
C         -0.14331       -0.10490       -1.53140
S          1.27206        0.23726       -2.51932
C         -1.42960       -0.00628       -1.96738
C         -2.50089       -0.30739       -1.07673
H         -4.07317        0.08074       -2.48470
H         -6.48271       -0.11357       -2.01514
H         -9.95213       -2.37937       -1.80990
H         -8.49210       -1.68581       -2.56344
H        -10.10624       -1.06943       -3.02017
H        -11.42165       -0.07518        0.54371
H        -12.24402       -1.24836        1.62001
H        -11.47375       -1.80639        0.10715
H         -5.40289       -1.51585        2.70233
H         -2.99038       -1.30677        2.16458
H         -0.62760       -1.10372        1.69476
H         -1.65551        0.29944       -2.98500
