46
anti_O_O_tetFbenz_m-OMebenz.log	Energy: -1042033.8901803
C         -3.52757        0.24369       -1.23409
C         -4.62878       -0.12394       -0.45743
C         -5.96357        0.16418       -0.87935
C         -7.01146       -0.21184       -0.09127
C         -8.45852       -0.10276       -0.17083
C         -9.36612        0.42668       -1.07853
C        -10.73005        0.34525       -0.81076
C         -8.94710       -0.70768        0.99590
C        -10.28763       -0.80764        1.29650
C        -11.18605       -0.26735        0.36813
O        -12.49304       -0.38677        0.70224
C        -13.46332        0.13270       -0.18036
C         -6.76363       -0.88933        1.14734
O         -7.93881       -1.18207        1.79197
C         -5.52394       -1.19145        1.60298
C         -4.40730       -0.80743        0.79376
C         -3.09755       -1.07981        1.18780
C         -1.99507       -0.71205        0.41052
C         -0.66344       -1.00173        0.83483
C          0.38033       -0.62240        0.04183
C          1.82555       -0.73302        0.12419
C          2.71434       -1.26940        1.04292
F          2.27553       -1.85144        2.15981
C          4.07740       -1.19703        0.79190
F          4.95347       -1.70445        1.65734
C          2.31357       -0.12830       -1.03929
C          3.66896       -0.04492       -1.30959
F          4.13697        0.52936       -2.41442
C          4.54549       -0.58893       -0.37567
F          5.85556       -0.53180       -0.59372
C          0.13770        0.05454       -1.19399
O          1.32005        0.34768       -1.83808
C         -1.10147        0.35715       -1.65062
C         -2.21616       -0.02835       -0.84029
H         -3.69782        0.75890       -2.17670
H         -6.12239        0.67900       -1.82283
H         -9.02348        0.90219       -1.99250
H        -11.43200        0.76028       -1.52343
H        -10.64937       -1.27798        2.20253
H        -14.42853       -0.07148        0.28395
H        -13.42145       -0.36046       -1.15967
H        -13.34766        1.21576       -0.31309
H         -5.37303       -1.70567        2.54602
H         -2.92676       -1.59499        2.13025
H         -0.49569       -1.51611        1.77545
H         -1.25240        0.87180       -2.59324
