54
anti_C_NPh_diF_p-OMebenz.log	Energy: -955018.9979332
C         -2.89775       -1.74583        0.04097
C         -1.85147       -0.83294        0.03340
C         -0.48793       -1.26318       -0.02400
C          0.51377       -0.34258       -0.02673
C          1.96380       -0.45162       -0.09068
C          2.82166       -1.53844       -0.14775
C          4.19916       -1.31189       -0.18143
O          4.97605       -2.42944       -0.24177
C          6.37334       -2.26306       -0.26917
C          2.47244        0.86067       -0.07070
C          3.83831        1.09338       -0.09055
C          4.69869       -0.00430       -0.14893
C          0.21058        1.06932        0.03242
N          1.41072        1.77347        0.00538
C          1.53918        3.18131        0.03528
C          0.95738        3.91378        1.07111
C          1.07732        5.29906        1.09092
C          1.79441        5.95664        0.09474
C          2.38341        5.22257       -0.93140
C          2.24859        3.83897       -0.97079
C         -1.07119        1.53180        0.07426
C         -2.14449        0.58574        0.07889
C         -3.47235        0.99418        0.12615
C         -4.53558        0.07495        0.13346
C         -5.88200        0.48988        0.18237
C         -6.91310       -0.43279        0.18977
C         -8.28696       -0.03430        0.23939
F         -8.56946        1.27444        0.27976
C         -9.28693       -0.95059        0.24599
F        -10.56548       -0.55636        0.29284
C         -6.62685       -1.84732        0.14692
C         -7.72005       -2.77833        0.15579
C         -9.00705       -2.34624        0.20368
C         -5.30529       -2.25828        0.09857
C         -4.24085       -1.33529        0.09042
H         -2.67361       -2.80987        0.00683
H         -0.27119       -2.32725       -0.07061
H          2.45427       -2.55939       -0.16305
H          6.79571       -3.26759       -0.31782
H          6.73991       -1.76202        0.63676
H          6.69665       -1.69374       -1.15096
H          4.24046        2.10023       -0.05527
H          5.76671        0.17867       -0.16552
H          0.42060        3.39077        1.85638
H          0.61968        5.86476        1.89680
H          1.89331        7.03743        0.11775
H          2.93850        5.72934       -1.71496
H          2.68198        3.26123       -1.78134
H         -1.29509        2.59343        0.09839
H         -3.69905        2.05740        0.15860
H         -6.11056        1.55031        0.21461
H         -7.49919       -3.84097        0.12339
H         -9.84631       -3.03307        0.21116
H         -5.07969       -3.32189        0.06593
