52
anti_O_NPh_3-CN_m-OMebenz.log	Energy: -886993.4636215
C         -2.82080       -1.82143        0.21771
C         -1.77723       -0.89714        0.16519
C         -0.41692       -1.31513        0.04991
C          0.57866       -0.38384        0.00429
C          2.02283       -0.46747       -0.11852
C          2.92257       -1.52921       -0.21498
C          4.27756       -1.26865       -0.30395
C          2.51335        0.84762       -0.11780
C          3.87439        1.13800       -0.19478
C          4.75052        0.05688       -0.28988
O          6.09719        0.18593       -0.37348
C          6.64388        1.48520       -0.35981
C          0.25836        1.02079        0.07654
N          1.44973        1.74231       -0.00040
C          1.55725        3.15345        0.02899
C          1.04194        3.86883        1.11038
C          1.14051        5.25588        1.13116
C          1.77026        5.93072        0.08844
C          2.29234        5.21330       -0.98465
C          2.17755        3.82772       -1.02347
C         -1.02485        1.47112        0.17434
C         -2.08272        0.51249        0.22420
C         -3.41648        0.90585        0.32940
C         -4.46605       -0.01840        0.38183
C         -5.82167        0.40972        0.49055
C         -6.80820       -0.53446        0.53931
C         -8.25963       -0.51207        0.64578
C         -9.09876        0.62988        0.73546
N         -9.76331        1.57758        0.80774
C         -8.65722       -1.80806        0.64298
C         -6.47861       -1.91806        0.48140
O         -7.62724       -2.67519        0.54651
C         -5.21117       -2.39185        0.37756
C         -4.15807       -1.42882        0.32480
H         -2.58626       -2.88271        0.17328
H         -0.19329       -2.37731       -0.00505
H          2.56522       -2.55484       -0.21797
H          5.00422       -2.06943       -0.38191
H          4.22079        2.16339       -0.17137
H          7.72413        1.35763       -0.43715
H          6.40684        2.01162        0.57358
H          6.28752        2.08037       -1.21057
H          0.57230        3.33138        1.92827
H          0.73473        5.80954        1.97231
H          1.85249        7.01289        0.11148
H          2.77788        5.73441       -1.80414
H          2.55826        3.26073       -1.86743
H         -1.25811        2.53063        0.21011
H         -3.65118        1.96703        0.37239
H         -6.05276        1.47004        0.53309
H         -9.64122       -2.24886        0.70401
H         -4.99727       -3.45435        0.33589
