41
anti_S_NPh_2-F_C.log	Energy: -925824.2556433
C          0.49009        0.28321        1.92029
C          1.86273        0.32473        1.64627
C          2.82810        0.34599        2.68956
C          4.16412        0.38449        2.38352
C          5.36769        0.43749        3.17927
C          6.41045        0.47680        2.31567
C          4.58102        0.39335        1.00414
N          5.97166        0.44421        0.99755
C          6.81504        0.47004       -0.13616
C          6.62441       -0.44140       -1.17637
C          7.46468       -0.41071       -2.28362
C          8.50915        0.50777       -2.35113
C          8.70493        1.40559       -1.30544
C          7.85538        1.39765       -0.20449
C          3.68819        0.39451       -0.03280
C          2.29826        0.35637        0.26939
C          1.33252        0.34923       -0.74393
C         -0.03381        0.30943       -0.46705
C         -1.01103        0.30212       -1.50563
C         -2.34612        0.26166       -1.20827
C         -3.47966        0.24797       -2.11056
C         -4.63836        0.20535       -1.43713
F         -5.85531        0.18277       -1.96056
C         -2.76052        0.22609        0.17381
S         -4.51990        0.17699        0.31804
C         -1.86473        0.23175        1.19855
C         -0.46671        0.27408        0.90766
H          0.16267        0.25864        2.95758
H          2.49307        0.34034        3.72343
H          5.43107        0.43476        4.25754
H          7.47310        0.49858        2.51519
H          5.83164       -1.17875       -1.10327
H          7.31090       -1.12114       -3.09017
H          9.16738        0.52321       -3.21405
H          9.51357        2.12864       -1.35163
H          7.98312        2.11847        0.59746
H          4.01116        0.43355       -1.06826
H          1.65918        0.37546       -1.78138
H         -0.68022        0.32944       -2.54065
H         -3.41188        0.26933       -3.19042
H         -2.18800        0.20504        2.23538
