57
anti_O_NPh_m-CNbenz_m-CF3benz.log	Energy: -1122980.8380760
C         -2.96419       -1.93996       -1.23097
C         -4.00320       -1.11116       -0.79778
C         -5.36529       -1.41371       -1.09019
C         -6.35377       -0.58245       -0.64845
C         -7.80103       -0.59603       -0.78272
C         -8.69437       -1.47210       -1.39091
C        -10.05491       -1.20480       -1.32356
C         -8.28231        0.54577       -0.11377
C         -9.64244        0.82038       -0.02776
C        -10.51475       -0.07040       -0.64433
C        -11.99158        0.21985       -0.63457
F        -12.71995       -0.90387       -0.52209
F        -12.34249        1.02980        0.37834
F        -12.38095        0.82361       -1.77302
C         -6.02748        0.59436        0.11378
N         -7.21352        1.25787        0.42429
C         -7.31389        2.46158        1.16556
C         -7.93877        3.57484        0.60381
C         -8.04788        4.74944        1.34065
C         -7.51535        4.82345        2.62497
C         -6.88126        3.71350        3.17743
C         -6.78819        2.52833        2.45590
C         -4.73853        0.93276        0.40882
C         -3.69001        0.07759       -0.04319
C         -2.34956        0.36261        0.22736
C         -1.31080       -0.46459       -0.20602
C          0.05248       -0.15335        0.08266
C          1.03647       -0.98962       -0.35892
C          2.48718       -1.01067       -0.26713
C          3.44857       -0.18469        0.30833
C          4.78705       -0.53464        0.19086
C          2.88600       -2.16918       -0.94794
C          4.20760       -2.54588       -1.08304
C          5.15926       -1.70208       -0.49729
C          6.55207       -2.03893       -0.60265
N          7.67663       -2.30759       -0.68554
C          0.69767       -2.16409       -1.10284
O          1.82650       -2.86701       -1.45195
C         -0.57458       -2.51531       -1.40998
C         -1.62604       -1.65559       -0.95901
H         -3.20799       -2.83486       -1.79906
H         -5.59840       -2.30426       -1.66791
H         -8.33455       -2.35707       -1.90679
H        -10.76702       -1.87749       -1.78799
H        -10.01331        1.68769        0.50553
H         -8.32943        3.51448       -0.40737
H         -8.53957        5.61278        0.90330
H         -7.59485        5.74404        3.19454
H         -6.46938        3.76422        4.18061
H         -6.31690        1.64983        2.88550
H         -4.49796        1.83048        0.96943
H         -2.10607        1.25848        0.79422
H          0.28510        0.74414        0.64914
H          3.16141        0.71678        0.83968
H          5.55822        0.08913        0.62868
H          4.49443       -3.44577       -1.61355
H         -0.79792       -3.41296       -1.97631
