53
anti_S_NPh_diCN_m-OMebenz.log	Energy: -1147525.3941428
C         -2.69164       -1.96562        0.30736
C         -1.67979       -1.00864        0.23631
C         -0.30901       -1.38430        0.10065
C          0.65580       -0.42233        0.03652
C          2.09906       -0.46042       -0.10874
C          3.03092       -1.49346       -0.21777
C          4.37450       -1.18914       -0.32975
C          2.54705        0.86964       -0.11887
C          3.89584        1.20436       -0.21994
C          4.80465        0.15158       -0.32704
O          6.14368        0.32330       -0.43352
C          6.64965        1.63962       -0.43289
C          0.29261        0.97313        0.11030
N          1.45726        1.73051        0.01328
C          1.52099        3.14541        0.03886
C          1.01503        3.84504        1.13454
C          1.07082        5.23456        1.15166
C          1.64869        5.92677        0.09044
C          2.16180        5.22469       -0.99709
C          2.08950        3.83609       -1.03168
C         -1.00213        1.38384        0.22785
C         -2.02823        0.39298        0.29668
C         -3.37054        0.74629        0.42146
C         -4.38717       -0.21385        0.49202
C         -5.75053        0.15805        0.61961
C         -6.72022       -0.81007        0.68702
C         -8.15312       -0.64394        0.81718
C         -8.77784        0.63486        0.89755
N         -9.23976        1.69626        0.95948
C         -8.82493       -1.83135        0.85402
C        -10.23154       -1.99336        0.97576
N        -11.37720       -2.14177        1.07465
C         -6.36379       -2.19740        0.62891
S         -7.78282       -3.23237        0.73480
C         -5.06400       -2.59688        0.50607
C         -4.03840       -1.61159        0.43416
H         -2.42487       -3.01909        0.26189
H         -0.05309       -2.43898        0.04507
H          2.70712       -2.53014       -0.21274
H          5.12552       -1.96593       -0.41791
H          4.20911        2.24058       -0.20594
H          7.73185        1.54531       -0.52729
H          6.41116        2.16123        0.50270
H          6.26106        2.21958       -1.27988
H          0.58629        3.29421        1.96597
H          0.67262        5.77676        2.00376
H          1.69776        7.01097        0.11043
H          2.60700        5.75964       -1.83037
H          2.46373        3.27965       -1.88553
H         -1.26726        2.43564        0.26540
H         -3.63893        1.79921        0.46543
H         -6.02093        1.20984        0.66346
H         -4.79484       -3.64808        0.46190
