62
anti_NPh_NPh_3-OMe_diCF3.log	Energy: -1288099.0336560
C          0.49676       -0.81435       -0.26470
C         -0.88484       -0.86953       -0.04559
C         -1.68227       -1.88033       -0.64560
C         -3.03649       -1.90564       -0.41322
C         -4.12435       -2.76338       -0.83610
C         -4.00742       -3.95270       -1.73431
F         -2.71701       -4.28977       -1.91736
F         -4.62148       -5.03536       -1.22812
F         -4.52738       -3.73388       -2.95348
C         -5.26751       -2.26359       -0.27787
C         -6.68264       -2.75941       -0.39865
F         -6.83144       -3.57762       -1.43965
F         -7.06104       -3.42745        0.70514
F         -7.53724       -1.73853       -0.56193
C         -3.62352       -0.90636        0.43133
N         -4.99015       -1.15551        0.49704
C         -5.89214       -0.38554        1.29097
C         -6.17549        0.92510        0.91486
C         -7.02247        1.69522        1.70365
C         -7.58799        1.15390        2.85582
C         -7.29880       -0.15675        3.22483
C         -6.44068       -0.92903        2.44871
C         -2.89854        0.07993        1.04058
C         -1.49686        0.12091        0.81066
C         -0.68688        1.10064        1.39315
C          0.69071        1.15454        1.17290
C          1.50476        2.15171        1.78132
C          2.84984        2.17177        1.53065
C          3.93591        3.00399        2.00150
O          3.82551        4.05699        2.85708
C          3.27887        5.21956        2.25403
C          5.08225        2.53523        1.45171
C          3.44900        1.18817        0.66446
N          4.81805        1.43891        0.63295
C          5.80153        0.69761       -0.05660
C          5.60886        0.34218       -1.39333
C          6.58686       -0.38443       -2.06313
C          7.76869       -0.73906       -1.41810
C          7.96471       -0.36870       -0.09049
C          6.98247        0.33731        0.59502
C          2.71058        0.19786        0.07909
C          1.30462        0.16452        0.31456
H          0.95435       -1.56238       -0.90851
H         -1.20747       -2.61919       -1.27962
H         -5.73472        1.32538        0.00737
H         -7.24763        2.71647        1.41287
H         -8.25411        1.75503        3.46687
H         -7.73498       -0.57930        4.12439
H         -6.19762       -1.94772        2.72971
H         -3.36902        0.81653        1.68425
H         -1.14510        1.84529        2.04050
H          1.05355        2.87429        2.45579
H          3.93426        5.58993        1.45537
H          3.19951        5.97145        3.04131
H          2.28448        5.02489        1.83333
H          6.09088        2.90873        1.55449
H          4.70416        0.65330       -1.90532
H          6.42940       -0.65925       -3.10172
H          8.53279       -1.29959       -1.94726
H          8.88084       -0.64429        0.42294
H          7.11766        0.59732        1.64055
H          3.16473       -0.56679       -0.54256
