55
anti_S_NPh_tetFbenz_diOMe.log	Energy: -1352643.2751712
C         -3.33546       -1.97708        1.53742
C         -4.36843       -1.17439        1.03923
C         -5.73137       -1.43062        1.35844
C         -6.71116       -0.62489        0.84093
C         -8.14461       -0.60177        0.97676
O         -8.88695       -1.47987        1.71917
C         -9.02711       -2.75241        1.10729
C         -8.60149        0.46524        0.25115
O         -9.81273        0.97034        0.01895
C        -10.92541        0.28990        0.58570
C         -6.36144        0.48337       -0.00736
N         -7.54024        1.14071       -0.34709
C         -7.64783        2.26412       -1.20611
C         -7.08109        2.21048       -2.47940
C         -7.15510        3.31920       -3.31580
C         -7.81216        4.47181       -2.89461
C         -8.38864        4.51519       -1.62767
C         -8.29959        3.41946       -0.77678
C         -5.06848        0.77762       -0.32837
C         -4.03390       -0.05762        0.18631
C         -2.69047        0.18425       -0.11363
C         -1.66447       -0.61982        0.38473
C         -0.29823       -0.36314        0.07054
C          0.69015       -1.16592        0.57080
C          2.13377       -1.08413        0.37778
C          2.87462       -0.16990       -0.36424
F          2.27400        0.81754       -1.03647
C          4.25788       -0.26164       -0.42457
F          4.95964        0.61694       -1.13714
C          2.81885       -2.10148        1.06401
C          4.19931       -2.19746        1.00740
F          4.84390       -3.16570        1.66131
C          4.92195       -1.27621        0.26174
F          6.24769       -1.35538        0.19745
C          0.34458       -2.27538        1.41952
S          1.76401       -3.18385        1.95814
C         -0.94685       -2.55610        1.74493
C         -1.99717       -1.73262        1.23476
H         -3.58733       -2.81718        2.18105
H         -5.98032       -2.25286        2.02343
H         -9.59250       -2.67809        0.16821
H         -9.57190       -3.38193        1.81376
H         -8.05078       -3.20306        0.89257
H        -11.79729        0.88348        0.31085
H        -10.83453        0.22554        1.67223
H        -11.01827       -0.71758        0.16773
H         -6.59008        1.29944       -2.80687
H         -6.70829        3.27551       -4.30434
H         -7.87529        5.33378       -3.55151
H         -8.90073        5.41210       -1.29288
H         -8.73253        3.45039        0.21678
H         -4.81508        1.62861       -0.95278
H         -2.43634        1.02577       -0.75455
H         -0.05519        0.47724       -0.57000
H         -1.19850       -3.39561        2.38676
