60
anti_O_NPh_p-OMebenz_p-CF3benz.log	Energy: -1136961.6422055
C         -3.44466        0.99857        0.00130
C         -4.51552        0.09981        0.01013
C         -5.86688        0.55410        0.01150
C         -6.88671       -0.35293        0.02287
C         -8.33504       -0.22649        0.01410
C         -9.19021        0.86698        0.01315
C        -10.56330        0.64343        0.02744
C        -11.51754        1.79996       -0.03371
F        -10.95105        2.94635        0.38165
F        -11.96340        2.01694       -1.28680
F        -12.60672        1.59071        0.72884
C         -8.86047       -1.53412        0.02295
C        -10.23469       -1.76459        0.04810
C        -11.07463       -0.66052        0.04749
C         -6.60337       -1.76295        0.03669
N         -7.81861       -2.45323        0.03603
C         -7.96159       -3.86282        0.04889
C         -7.38591       -4.61013        1.07654
C         -7.52011       -5.99427        1.08104
C         -8.24336       -6.63260        0.07665
C         -8.82440       -5.88232       -0.94219
C         -8.67599       -4.49956       -0.96586
C         -5.32820       -2.24765        0.02389
C         -4.24636       -1.31672        0.01285
C         -2.91621       -1.74389        0.00384
C         -1.84606       -0.84658       -0.00579
C         -0.49287       -1.30523       -0.01460
C          0.52274       -0.39502       -0.02315
C          1.97627       -0.47285       -0.03316
C          2.89585       -1.51072       -0.03789
C          4.25775       -1.19701       -0.04784
O          5.10106       -2.26527       -0.05184
C          6.48739       -2.01829       -0.06244
C          2.41881        0.85555       -0.03840
C          3.75736        1.18614       -0.04830
C          4.68160        0.13918       -0.05301
C          0.22882        1.00740       -0.02335
O          1.37785        1.75312       -0.03256
C         -1.03254        1.50516       -0.01545
C         -2.11688        0.57137       -0.00639
H         -3.65485        2.06583       -0.00044
H         -6.06716        1.62233       -0.00116
H         -8.79761        1.87818        0.00955
H        -10.63725       -2.77109        0.07697
H        -12.14902       -0.80951        0.07224
H         -6.84248       -4.10016        1.86583
H         -7.06866       -6.57398        1.88027
H         -8.35333       -7.71246        0.08771
H         -9.38432       -6.37505       -1.73106
H         -9.10364       -3.90761       -1.76923
H         -5.12156       -3.31325        0.01701
H         -2.70630       -2.81132        0.00405
H         -0.29305       -2.37330       -0.01452
H          2.59232       -2.55215       -0.03420
H          6.96728       -2.99774       -0.06426
H          6.80650       -1.46260        0.82925
H          6.79338       -1.46569       -0.96061
H          4.08187        2.22052       -0.05231
H          5.73742        0.38223       -0.06077
H         -1.22324        2.57301       -0.01605
