43
anti_S_O_tetClbenz_p-CNbenz.log	Energy: -2135281.4476577
C         -3.56056        1.19623        0.00024
C         -4.61876        0.28409       -0.00083
C         -5.97690        0.72693       -0.00009
C         -6.97908       -0.19819       -0.00117
C         -8.43326       -0.14569       -0.00092
C         -9.37613        0.87188        0.00055
C        -10.72977        0.51843        0.00027
C        -11.73004        1.54862        0.00177
N        -12.53650        2.38139        0.00299
C         -8.85573       -1.48237       -0.00260
C        -10.19030       -1.85428       -0.00290
C        -11.12814       -0.83037       -0.00143
C         -6.66424       -1.59394       -0.00303
O         -7.80914       -2.35514       -0.00388
C         -5.39933       -2.07919       -0.00381
C         -4.32823       -1.13046       -0.00270
C         -2.99572       -1.54383       -0.00339
C         -1.93947       -0.62866       -0.00231
C         -0.58491       -1.07049       -0.00302
C          0.45079       -0.17174       -0.00194
C          1.90563       -0.38283       -0.00234
C          2.66456       -1.56100       -0.00398
Cl         1.89589       -3.11646       -0.00609
C          4.06378       -1.51112       -0.00399
Cl         4.98716       -2.97316       -0.00600
C          2.60064        0.84134       -0.00075
C          3.98913        0.90535       -0.00074
Cl         4.75930        2.45532        0.00131
C          4.73013       -0.27541       -0.00236
Cl         6.45473       -0.21070       -0.00236
C          0.13529        1.23417       -0.00006
S          1.56717        2.25504        0.00120
C         -1.14434        1.70045        0.00067
C         -2.22952        0.77706       -0.00044
H         -3.78106        2.26113        0.00165
H         -6.18940        1.79223        0.00132
H         -9.08311        1.91627        0.00187
H        -10.48328       -2.89744       -0.00422
H        -12.18646       -1.06724       -0.00159
H         -5.19610       -3.14446       -0.00521
H         -2.77237       -2.60800       -0.00480
H         -0.40294       -2.13587       -0.00443
H         -1.35380        2.76623        0.00209
