30
anti_O_O_2-Cl_diCl.log	Energy: -1393583.2277984
C          0.94352       -1.28587       -0.00013
C          2.15494       -0.58871        0.00021
C          3.40375       -1.27822       -0.00012
C          4.55785       -0.54802        0.00023
C          5.97079       -0.85622        0.00007
Cl         6.67030       -2.42141       -0.00069
C          6.61736        0.32892        0.00065
Cl         8.27906        0.68190        0.00082
C          4.50584        0.87772        0.00092
O          5.77769        1.39885        0.00117
C          3.35364        1.59219        0.00126
C          2.12808        0.85621        0.00090
C          0.89382        1.50789        0.00121
C         -0.31763        0.81094        0.00087
C         -1.56721        1.50019        0.00120
C         -2.72811        0.77689        0.00085
C         -4.14100        1.09504        0.00099
C         -4.76929       -0.09545        0.00044
Cl        -6.43513       -0.46762        0.00026
C         -2.66718       -0.65165        0.00017
O         -3.93723       -1.17224       -0.00007
C         -1.51642       -1.36839       -0.00017
C         -0.29020       -0.63379        0.00018
H          0.96426       -2.37321       -0.00065
H          3.42463       -2.36386       -0.00065
H          3.35272        2.67674        0.00179
H          0.87339        2.59532        0.00174
H         -1.57767        2.58617        0.00171
H         -4.60884        2.06737        0.00145
H         -1.51599       -2.45293       -0.00068
