54
anti_C_NPh_diOMe_diCN.log	Energy: -921686.0003613
C         -2.59490       -1.26646        2.59550
C         -3.54474       -0.42127        2.01988
C         -4.83650       -0.26471        2.59447
C         -5.73648        0.57442        1.99546
C         -7.09092        0.96195        2.31759
C         -7.85931        0.50475        3.41722
N         -8.45631        0.10804        4.32940
C         -7.49188        1.85252        1.35083
C         -8.75791        2.49315        1.23600
N         -9.78929        3.01494        1.15434
C         -5.38622        1.28768        0.79988
N         -6.48517        2.06184        0.43041
C         -6.55593        2.91215       -0.70952
C         -6.33718        2.37305       -1.97609
C         -6.39529        3.20275       -3.08994
C         -6.68853        4.55611       -2.94057
C         -6.91509        5.08367       -1.67263
C         -6.83819        4.26642       -0.54992
C         -4.15625        1.18026        0.21602
C         -3.19894        0.31241        0.81729
C         -1.92524        0.15142        0.27192
C         -0.97254       -0.69718        0.84953
C          0.31846       -0.85938        0.29735
C          1.24856       -1.69905        0.87883
C          2.56275       -1.87346        0.31144
O          2.84908       -1.19910       -0.84959
C          2.79740       -2.03410       -1.99928
C          3.47683       -2.69278        0.91211
O          4.73613       -2.91520        0.44418
C          5.51442       -1.78262        0.07922
C          0.90504       -2.43281        2.07613
C          1.89097       -3.30704        2.65042
C          3.12069       -3.42468        2.09447
C         -0.35255       -2.28050        2.62564
C         -1.31829       -1.42627        2.04588
H         -2.85514       -1.81544        3.49759
H         -5.09528       -0.80488        3.50068
H         -6.13267        1.31209       -2.07967
H         -6.22525        2.78664       -4.07782
H         -6.74246        5.19914       -3.81327
H         -7.14401        6.13751       -1.55211
H         -6.99469        4.67339        0.44386
H         -3.89750        1.73747       -0.67850
H         -1.66201        0.70190       -0.62833
H          0.59073       -0.30500       -0.59517
H          3.55062       -2.82934       -1.94296
H          3.00382       -1.39246       -2.85812
H          1.80309       -2.48443       -2.10733
H          6.55547       -2.10766        0.12863
H          5.35172       -0.95816        0.78178
H          5.28466       -1.43443       -0.93130
H          1.63445       -3.86447        3.54670
H          3.88052       -4.07154        2.52056
H         -0.61182       -2.82968        3.52800
