35
anti_C_S_diCN_2-Cl.log	Energy: -1136585.3081919
C          0.90574        1.44862        0.87696
C         -0.19428        0.79201        0.33461
C         -1.52564        1.10011        0.74515
C         -2.59059        0.44037        0.19666
C         -4.00017        0.60720        0.47696
C         -4.76370       -0.22032       -0.25929
Cl        -6.48048       -0.32605       -0.21661
C         -2.36273       -0.57504       -0.80501
S         -3.88023       -1.27650       -1.35583
C         -1.11214       -0.90388       -1.22873
C          0.01698       -0.22764       -0.66977
C          1.31294       -0.52943       -1.07120
C          2.42527        0.13139       -0.52582
C          3.74049       -0.17350       -0.93177
C          4.83004        0.48333       -0.38803
C          6.18611        0.18780       -0.78791
C          6.40827       -0.82046       -1.78222
N          6.54489       -1.64208       -2.58835
C          7.24675        0.85996       -0.22649
C          8.59454        0.56822       -0.62155
N          9.69546        0.35860       -0.91641
C          4.62490        1.50139        0.61420
C          5.76699        2.17116        1.16621
C          7.02821        1.86929        0.76833
C          3.33781        1.80697        1.01827
C          2.21596        1.14753        0.47496
H          0.74813        2.21516        1.63195
H         -1.68139        1.86628        1.49966
H         -4.39720        1.31414        1.19447
H         -0.94916       -1.66853       -1.98240
H          1.47343       -1.29544       -1.82587
H          3.89267       -0.94028       -1.68653
H          5.60309        2.93590        1.91987
H          7.88829        2.37790        1.18835
H          3.18414        2.57405        1.77339
