34
anti_O_O_2-CN_3-CF3.log	Energy: -797717.0883487
C          1.49118       -0.98913        0.10497
C          2.59672       -0.13686        0.05419
C          3.92684       -0.65240        0.08612
C          4.97416        0.22314        0.03379
C          6.41910        0.10832        0.04134
C          7.21134       -1.14373        0.11983
F          6.94214       -1.82704        1.24601
F          6.93277       -1.96775       -0.90549
F          8.53013       -0.89325        0.09781
C          6.90088        1.36396       -0.03477
C          4.73109        1.62706       -0.05159
O          5.92423        2.30431       -0.09239
C          3.49390        2.18155       -0.08572
C          2.37772        1.28994       -0.03222
C          1.06842        1.76948       -0.06184
C         -0.03912        0.91646       -0.01091
C         -1.36660        1.43116       -0.04257
C         -2.42013        0.55716        0.00952
C         -3.85807        0.68637        0.00111
C         -4.33843       -0.57511        0.07675
C         -5.68472       -1.03606        0.10389
N         -6.78985       -1.38396        0.12437
C         -2.17416       -0.84796        0.09422
O         -3.35864       -1.53033        0.13468
C         -0.93455       -1.40109        0.12821
C          0.17962       -0.51018        0.07523
H          1.65818       -2.06162        0.16977
H          4.08905       -1.72364        0.15082
H          7.91300        1.73901       -0.05716
H          3.34696        3.25409       -0.15086
H          0.90173        2.84220       -0.12668
H         -1.52411        2.50372       -0.10721
H         -4.44784        1.58935       -0.05337
H         -0.78748       -2.47356        0.19284
