57
anti_O_NPh_m-CF3benz_m-CNbenz.log	Energy: -1122981.0119149
C         -2.94605       -2.09379       -0.97384
C         -4.02257       -1.25666       -0.66551
C         -5.36834       -1.66181       -0.90118
C         -6.39450       -0.81825       -0.58523
C         -7.83866       -0.91942       -0.70720
C         -8.68623       -1.91912       -1.17375
C        -10.05814       -1.71259       -1.14506
C         -8.37356        0.28979       -0.21607
C         -9.74345        0.51204       -0.16776
C        -10.57522       -0.50672       -0.64239
C        -11.99864       -0.31161       -0.61331
N        -13.14697       -0.15378       -0.59173
C         -6.12375        0.47403       -0.01343
N         -7.34023        1.12313        0.19846
C         -7.49704        2.41836        0.75365
C         -8.16044        3.40936        0.03062
C         -8.32551        4.67391        0.58598
C         -7.81040        4.95770        1.84796
C         -7.13709        3.96888        2.56088
C         -6.98775        2.69554        2.02219
C         -4.85239        0.91133        0.22085
C         -3.76509        0.04564       -0.10149
C         -2.43918        0.42857        0.11573
C         -1.36328       -0.40675       -0.19294
C         -0.01535        0.00586        0.03776
C          1.00621       -0.84176       -0.27736
C          2.45717       -0.78424       -0.19273
C          3.38273        0.15795        0.24721
C          4.73450       -0.15271        0.17626
C          2.90813       -2.01144       -0.69175
C          4.24707       -2.34660       -0.77345
C          5.15537       -1.38941       -0.32770
C          6.63263       -1.65961       -0.43754
F          6.90043       -2.97102       -0.54135
F          7.16127       -1.06036       -1.51954
F          7.30168       -1.19396        0.63099
C          0.72210       -2.13007       -0.83303
O          1.88050       -2.82601       -1.07779
C         -0.53268       -2.58059       -1.07653
C         -1.62292       -1.71105       -0.75526
H         -3.14785       -3.07459       -1.39850
H         -5.55957       -2.63969       -1.33521
H         -8.28177       -2.85207       -1.55381
H        -10.73969       -2.47503       -1.50472
H        -10.16182        1.43200        0.22425
H         -8.53701        3.18482       -0.96266
H         -8.84752        5.44222        0.02428
H         -7.93398        5.94769        2.27556
H         -6.73832        4.18392        3.54740
H         -6.48472        1.91035        2.57798
H         -4.65424        1.89364        0.63779
H         -2.23764        1.41007        0.53902
H          0.17522        0.98846        0.46036
H          3.05766        1.11551        0.64116
H          5.47413        0.56265        0.51833
H          4.56774       -3.30593       -1.16018
H         -0.71405       -3.56284       -1.49927
