42
anti_C_O_3-Cl_m-CF3benz.log	Energy: -1126024.0159850
C         -3.01709       -1.52851       -0.53528
C         -1.91363       -0.77654       -0.15176
C         -0.58630       -1.16281       -0.52705
C          0.46821       -0.39865       -0.13063
C          1.91114       -0.46097       -0.30688
C          2.78899       -1.32974       -0.94835
C          4.15057       -1.05921       -0.89670
C          2.41749        0.65463        0.36902
C          3.76669        0.94762        0.43657
C          4.62734        0.06497       -0.21226
C          6.10591        0.35049       -0.23096
F          6.82928       -0.77672       -0.12198
F          6.47591        0.94175       -1.38095
F          6.47533        1.16576        0.76956
C          0.24493        0.78143        0.65586
O          1.43225        1.40501        0.94915
C         -0.98030        1.20359        1.04432
C         -2.11318        0.42003        0.64272
C         -3.40479        0.78339        0.99970
C         -4.52372        0.02484        0.61336
C         -5.83408        0.39591        0.97713
C         -6.93249       -0.35427        0.59452
C         -8.29166       -0.01839        0.94008
Cl        -8.59749        1.41479        1.89716
C         -9.34550       -0.77882        0.54678
C         -6.73538       -1.54877       -0.19792
C         -7.87438       -2.32647       -0.59431
C         -9.12960       -1.95553       -0.23574
C         -5.45001       -1.91749       -0.55799
C         -4.32468       -1.16242       -0.17481
H         -2.86674       -2.42601       -1.13112
H         -0.44355       -2.06028       -1.12249
H          2.42092       -2.20363       -1.47623
H          4.85452       -1.72475       -1.38372
H          4.13084        1.81629        0.97091
H         -1.11309        2.10098        1.63861
H         -3.55887        1.67999        1.59528
H         -5.97453        1.29284        1.57134
H        -10.35346       -0.49330        0.82664
H         -7.70725       -3.22016       -1.18888
H         -9.98845       -2.54636       -0.53741
H         -5.30350       -2.81564       -1.15370
