57
anti_S_NPh_benz_m-OMebenz.log	Energy: -1128194.7320251
C         -3.21360       -2.11210       -1.29824
C         -4.18410       -1.22257       -0.83155
C         -5.57276       -1.43461       -1.08401
C         -6.49367       -0.54624       -0.61130
C         -7.94155       -0.46289       -0.70157
C         -8.91374       -1.26455       -1.28185
C        -10.25676       -0.91267       -1.17981
C         -8.33190        0.70588       -0.01523
C         -9.66194        1.07289        0.11052
C        -10.62309        0.24934       -0.48343
O        -11.90535        0.66580       -0.32730
C        -12.93601       -0.11615       -0.88687
C         -6.06761        0.60346        0.14578
N         -7.19991        1.34264        0.49295
C         -7.19639        2.54546        1.23907
C         -7.77835        3.69703        0.70824
C         -7.78326        4.87370        1.44958
C         -7.18979        4.91266        2.70853
C         -6.59931        3.76470        3.23065
C         -6.61023        2.57850        2.50492
C         -4.75230        0.85673        0.40290
C         -3.77152       -0.06098       -0.08236
C         -2.40908        0.13766        0.15028
C         -1.43910       -0.75261       -0.31781
C         -0.05024       -0.54378       -0.07636
C          0.88122       -1.42885       -0.54366
C          2.33393       -1.39069       -0.40151
C          3.11923       -0.43685        0.24818
C          4.49973       -0.58117        0.27263
C          2.95885       -2.48426       -1.02164
C          4.34220       -2.63586       -1.00146
C          5.10680       -1.67547       -0.34935
C          0.45281       -2.58244       -1.28680
S          1.81515       -3.58608       -1.79148
C         -0.86371       -2.82331       -1.54222
C         -1.85220       -1.91156       -1.06316
H         -3.52904       -2.98699       -1.86284
H         -5.87826       -2.30521       -1.65869
H         -8.63434       -2.16884       -1.81484
H        -11.00624       -1.54516       -1.63921
H         -9.97819        1.95795        0.65005
H        -13.86736        0.39424       -0.63863
H        -12.95281       -1.12688       -0.45956
H        -12.84236       -0.18621       -1.97814
H         -8.21845        3.66251       -0.28345
H         -8.24127        5.76642        1.03480
H         -7.18760        5.83487        3.28126
H         -6.13960        3.78713        4.21402
H         -6.17263        1.67242        2.91224
H         -4.43706        1.73470        0.95787
H         -2.09261        1.01310        0.71338
H          0.25473        0.33442        0.48744
H          2.65020        0.41493        0.73246
H          5.11089        0.16024        0.77765
H          4.81541       -3.48520       -1.48412
H          6.18727       -1.77957       -0.32482
H         -1.18038       -3.69714       -2.10473
