54
anti_O_NPh_tetFbenz_m-CNbenz.log	Energy: -1160535.6079159
C         -3.01741       -2.14520       -1.18474
C         -4.05689       -1.29437       -0.79630
C         -5.41862       -1.61572       -1.06678
C         -6.40721       -0.76158       -0.66964
C         -7.85429       -0.78671       -0.79673
C         -8.74472       -1.69892       -1.35407
C        -10.10607       -1.43540       -1.30190
C         -8.33561        0.39250       -0.19094
C         -9.69434        0.66984       -0.11794
C        -10.56977       -0.26105       -0.68519
C        -11.98315       -0.00656       -0.63377
N        -13.12332        0.19936       -0.59410
C         -6.08070        0.45719        0.02210
N         -7.26704        1.13583        0.29862
C         -7.36679        2.37838        0.97484
C         -7.98273        3.46270        0.35056
C         -8.09110        4.67494        1.02404
C         -7.56643        4.81370        2.30619
C         -6.94076        3.73186        2.92063
C         -6.84856        2.51003        2.26301
C         -4.79164        0.81384        0.29408
C         -3.74348       -0.06437       -0.11151
C         -2.40244        0.23764        0.13918
C         -1.36406       -0.61127       -0.24889
C         -0.00068       -0.28013        0.02011
C          0.97932       -1.14146       -0.37693
C          2.42826       -1.15816       -0.28823
C          3.38499       -0.30295        0.23617
F          3.03127        0.83957        0.82614
C          4.72658       -0.64572        0.14316
F          5.66662        0.15703        0.63845
C          2.82682       -2.35051       -0.90181
C          4.15927       -2.71223       -1.00565
F          4.54247       -3.84481       -1.58799
C          5.10509       -1.84107       -0.47338
F          6.39602       -2.14740       -0.55014
C          0.64292       -2.35715       -1.05269
O          1.77427       -3.07893       -1.36431
C         -0.62835       -2.72714       -1.33694
C         -1.67976       -1.84336       -0.93240
H         -3.26106       -3.07128       -1.70044
H         -5.65185       -2.53849       -1.59141
H         -8.38157       -2.60839       -1.82246
H        -10.82034       -2.12914       -1.73047
H        -10.07171        1.56607        0.36102
H         -8.36692        3.35111       -0.65879
H         -8.57611        5.51620        0.53894
H         -7.64545        5.76324        2.82605
H         -6.53467        3.83379        3.92221
H         -6.38307        1.65350        2.74063
H         -4.55105        1.74214        0.80232
H         -2.15857        1.16431        0.65360
H          0.23918        0.64528        0.53337
H         -0.85134       -3.65567       -1.85100
