48
anti_C_NPh_3-OMe_2-F.log	Energy: -796380.8625632
C          1.17090        1.72774        0.21774
C          0.01150        0.95984        0.13607
C         -1.28355        1.55273        0.23334
C         -2.40182        0.77037        0.15356
C         -3.81848        1.05538        0.19885
C         -4.42953       -0.13882        0.05023
F         -5.72168       -0.41046        0.03553
C         -2.26098       -0.65682       -0.02812
N         -3.54887       -1.19630       -0.09088
C         -3.89594       -2.56682       -0.19393
C         -3.32342       -3.49086        0.68032
C         -3.64999       -4.83773        0.56884
C         -4.56154       -5.26180       -0.39439
C         -5.14039       -4.33293       -1.25482
C         -4.80240       -2.98716       -1.16637
C         -1.05105       -1.27170       -0.14196
C          0.12920       -0.47088       -0.05815
C          1.39695       -1.03683       -0.16052
C          2.56421       -0.26361       -0.07941
C          3.85074       -0.83781       -0.18320
C          4.99200       -0.06485       -0.10093
C          6.31526       -0.64528       -0.20663
O          6.31727       -1.98769       -0.38944
C          7.56373       -2.63396       -0.50424
C          7.42992        0.13623       -0.12272
C          4.88419        1.36159        0.09531
C          6.08678        2.14464        0.17770
C          7.30060        1.54941        0.07222
C          3.62806        1.93095        0.19776
C          2.44863        1.15881        0.11611
H          1.08343        2.80229        0.36390
H         -1.36392        2.62823        0.36513
H         -4.30241        2.01091        0.32578
H         -2.63298       -3.14753        1.44408
H         -3.19983       -5.55536        1.24777
H         -4.82054       -6.31295       -0.47383
H         -5.85042       -4.65716       -2.00930
H         -5.23404       -2.26201       -1.84770
H         -0.96458       -2.34216       -0.29969
H          1.48774       -2.11087       -0.30822
H          3.94151       -1.90891       -0.33082
H          8.16545       -2.50381        0.40434
H          8.12842       -2.26035       -1.36798
H          7.34377       -3.69279       -0.64511
H          8.42323       -0.28951       -0.20068
H          6.00057        3.21731        0.32529
H          8.20718        2.14416        0.13476
H          3.54194        3.00533        0.34541
