48
anti_S_NPh_p-CNbenz_3-Cl.log	Energy: -1306214.6050248
C         -2.97871       -2.03527        1.84853
C         -4.02849       -1.31784        1.25874
C         -5.38058       -1.54906        1.62674
C         -6.37481       -0.82676        1.02180
C         -7.80714       -0.78715        1.16585
Cl        -8.73278       -1.77396        2.23733
C         -8.29347        0.14391        0.30967
C         -6.05846        0.15197        0.01566
N         -7.25546        0.72284       -0.40510
C         -7.41535        1.73841       -1.37814
C         -6.79204        1.62101       -2.62115
C         -6.95785        2.62249       -3.57120
C         -7.76013        3.72726       -3.29752
C         -8.39185        3.83211       -2.06147
C         -8.21321        2.84715       -1.09608
C         -4.76801        0.42024       -0.35323
C         -3.72036       -0.31749        0.26320
C         -2.37952       -0.09524       -0.07535
C         -1.34044       -0.81078        0.51542
C          0.02297       -0.57891        0.16419
C          1.02461       -1.29385        0.75568
C          2.46538       -1.20716        0.53621
C          3.15693       -0.36962       -0.33283
C          4.54937       -0.44312       -0.39446
C          5.26693        0.41953       -1.29055
N          5.84516        1.11636       -2.01453
C          3.18370       -2.11283        1.33695
C          4.57353       -2.19004        1.27927
C          5.25452       -1.35193        0.41058
C          0.70228       -2.29025        1.74228
S          2.14870       -3.08855        2.37065
C         -0.58189       -2.54727        2.11093
C         -1.64842       -1.81154        1.50589
H         -3.21408       -2.78836        2.59714
H         -5.61542       -2.28796        2.38749
H         -9.31624        0.43570        0.11929
H         -6.19696        0.74064       -2.84154
H         -6.47022        2.52885       -4.53663
H         -7.89316        4.50277       -4.04508
H         -9.01534        4.69240       -1.83867
H         -8.67610        2.94026       -0.11824
H         -4.52962        1.18049       -1.08997
H         -2.14357        0.65901       -0.82284
H          0.24701        0.17808       -0.58327
H          2.62658        0.33830       -0.96152
H          5.11851       -2.89221        1.90132
H          6.33644       -1.39322        0.34756
H         -0.81788       -3.30080        2.85681
