57
anti_O_NPh_p-OMebenz_tetFbenz.log	Energy: -1174516.5150574
C         -3.58912        0.95533        0.04072
C         -4.63542        0.02764        0.03403
C         -5.99678        0.44819        0.04524
C         -6.98879       -0.49053        0.04045
C         -8.43664       -0.40566        0.03237
C         -9.31536        0.66632        0.04960
F         -8.85698        1.92067        0.06348
C        -10.68267        0.43926        0.05445
F        -11.54507        1.45634        0.06691
C         -8.92926       -1.72687        0.01945
C        -10.30101       -1.95994        0.04171
F        -10.81774       -3.19290        0.05572
C        -11.16360       -0.87086        0.05047
F        -12.47799       -1.07855        0.06280
C         -6.67138       -1.89168        0.02981
N         -7.86588       -2.61982        0.02371
C         -7.94008       -4.03614       -0.07027
C         -7.37418       -4.81799        0.93505
C         -7.41437       -6.20468        0.83310
C         -8.03209       -6.80808       -0.25883
C         -8.60265       -6.02128       -1.25637
C         -8.54822       -4.63504       -1.17138
C         -5.38370       -2.34126        0.00524
C         -4.32816       -1.38087        0.00951
C         -2.98687       -1.77201       -0.00936
C         -1.94176       -0.84602       -0.00322
C         -0.57657       -1.26776       -0.02216
C          0.41384       -0.33039       -0.01468
C          1.86883       -0.36885       -0.02774
C          2.81567       -1.38159       -0.05296
C          4.16867       -1.03148       -0.05848
O          5.04018       -2.07632       -0.08328
C          6.41942       -1.79193       -0.09164
C          2.27551        0.97083       -0.00850
C          3.60475        1.33720       -0.01366
C          4.55654        0.31550       -0.03902
C          0.08226        1.06357        0.01180
O          1.21061        1.83986        0.01532
C         -1.19193        1.52690        0.03049
C         -2.25073        0.56407        0.02325
H         -3.82856        2.01615        0.05937
H         -6.23161        1.50750        0.05213
H         -6.91239       -4.33406        1.79005
H         -6.97285       -6.81351        1.61598
H         -8.07010       -7.89047       -0.33235
H         -9.08401       -6.48767       -2.11021
H         -8.97607       -4.01283       -1.95081
H         -5.14951       -3.40068       -0.02016
H         -2.74838       -2.83318       -0.02945
H         -0.34799       -2.32983       -0.04233
H          2.54003       -2.43065       -0.06849
H          6.92540       -2.75792       -0.11254
H          6.72536       -1.24453        0.80972
H          6.70833       -1.21471       -0.97991
H          3.90166        2.37972        0.00143
H          5.60552        0.58664       -0.04335
H         -1.41140        2.58900        0.05020
