65
anti_NPh_NPh_3-OMe_p-CF3benz.log	Energy: -1173051.0591310
C         -3.49904       -1.20381       -0.74916
C         -2.33035       -0.48204       -0.51050
C         -1.05541       -0.96892       -0.92998
C          0.06653       -0.23550       -0.67949
C          1.47628       -0.43416       -0.97588
C          2.17671       -1.45538       -1.60464
C          3.55815       -1.34758       -1.71807
C          4.36455       -2.42483       -2.38122
F          3.59554       -3.40699       -2.88037
F          5.10189       -1.93933       -3.39900
F          5.23295       -2.99679       -1.52443
C          2.16345        0.68704       -0.47074
C          3.55003        0.79505       -0.57070
C          4.23335       -0.23367       -1.20100
C         -0.02925        1.02572        0.00854
N          1.25832        1.56113        0.11842
C          1.58360        2.79442        0.73444
C          1.22828        3.02194        2.06420
C          1.54062        4.23733        2.66339
C          2.22384        5.21765        1.94820
C          2.58489        4.98352        0.62405
C          2.25644        3.77906        0.01084
C         -1.22219        1.54040        0.41981
C         -2.41272        0.78940        0.17013
C         -3.66446        1.25342        0.56943
C         -4.84080        0.52989        0.33397
C         -6.10830        1.01000        0.76117
C         -7.23306        0.26788        0.51082
C         -8.63444        0.44934        0.81954
O         -9.18243        1.51869        1.46000
C         -8.95934        1.51126        2.86125
C         -9.30845       -0.61404        0.31652
C         -7.14181       -0.97645       -0.20518
N         -8.43117       -1.48703       -0.32332
C         -8.81495       -2.68458       -0.96464
C         -8.31881       -2.99661       -2.23216
C         -8.70744       -4.17720       -2.85511
C         -9.60751       -5.03964       -2.23482
C        -10.11325       -4.71749       -0.97849
C         -9.71216       -3.55072       -0.33726
C         -5.93937       -1.48667       -0.61448
C         -4.75775       -0.73871       -0.35109
H         -3.43070       -2.15980       -1.26426
H         -0.99773       -1.92132       -1.45080
H          1.65865       -2.32279       -1.99869
H          4.07976        1.65019       -0.16574
H          5.31325       -0.17632       -1.29491
H          0.71443        2.24281        2.61847
H          1.26023        4.41284        3.69746
H          2.47350        6.16212        2.42151
H          3.11211        5.74632        0.05943
H          2.51062        3.59660       -1.02879
H         -1.28836        2.50018        0.92257
H         -3.73295        2.21014        1.08294
H         -6.17440        1.96219        1.28045
H         -9.40193        2.42916        3.25261
H         -7.88838        1.49230        3.09863
H         -9.43996        0.64225        3.32884
H        -10.37049       -0.81259        0.31979
H         -7.64831       -2.30396       -2.73008
H         -8.31665       -4.41396       -3.84009
H         -9.91428       -5.95637       -2.72839
H        -10.81284       -5.38509       -0.48472
H        -10.07882       -3.31333        0.65683
H         -5.86500       -2.44163       -1.12463
