44
anti_S_O_2-OMe_m-OMebenz.log	Energy: -971166.3808575
C         -2.70981       -1.92102       -0.17806
C         -1.65676       -1.02797        0.03070
C         -0.32285       -1.34367       -0.37385
C          0.67717       -0.44280       -0.15105
C          2.10715       -0.39510       -0.40609
C          3.04816       -1.24919       -0.98335
C          4.37012       -0.84648       -1.05328
C          2.53519        0.83992        0.08195
C          3.84904        1.27916        0.03047
C          4.77114        0.40641       -0.55161
O          6.09128        0.68076       -0.68039
C          6.56332        1.91910       -0.19807
C          0.37744        0.80600        0.48440
O          1.51039        1.57150        0.61869
C         -0.86403        1.16538        0.89122
C         -1.93140        0.23733        0.66906
C         -3.23937        0.52784        1.05720
C         -4.29352       -0.36716        0.84792
C         -5.62653       -0.06363        1.24716
C         -6.64237       -0.95755        1.03097
C         -8.04606       -0.83666        1.35957
C         -8.75319       -1.92962        0.99138
O        -10.05384       -2.21237        1.11340
C        -10.84537       -1.21189        1.73039
C         -6.34717       -2.21482        0.39207
S         -7.79900       -3.19820        0.21914
C         -5.08793       -2.54753       -0.00633
C         -4.01837       -1.62794        0.21141
H         -2.50351       -2.87478       -0.65923
H         -0.12627       -2.29864       -0.85354
H          2.75210       -2.21796       -1.37388
H          5.12942       -1.48249       -1.49442
H          4.11725        2.24968        0.42712
H          7.63498        1.93088       -0.39910
H          6.39583        2.01939        0.88191
H          6.08754        2.76019       -0.71833
H         -1.05271        2.12060        1.36947
H         -3.44650        1.48123        1.53834
H         -5.82800        0.89043        1.72763
H         -8.46891        0.03374        1.84433
H        -11.86306       -1.60061        1.74901
H        -10.81202       -0.28074        1.15249
H        -10.49992       -1.02108        2.75332
H         -4.87786       -3.49886       -0.48720
