49
anti_O_NPh_diCN_tetFbenz.log	Energy: -1122002.3391925
C         -2.70200       -1.89023        0.24857
C         -1.67694       -0.94612        0.19035
C         -0.32012       -1.34051       -0.00859
C          0.65288       -0.38583       -0.05813
C          2.08817       -0.44035       -0.25760
C          2.97058       -1.49265       -0.44735
F          2.52781       -2.75147       -0.48406
C          4.32449       -1.23850       -0.59904
F          5.19033       -2.23393       -0.78634
C          2.56216        0.88638       -0.21791
C          3.92205        1.14612       -0.35442
F          4.42298        2.38348       -0.30258
C          4.78822        0.07740       -0.55137
F          6.08972        0.30971       -0.69157
C          0.32464        1.00754        0.09382
N          1.49946        1.75469       -0.00030
C          1.54933        3.17653        0.02668
C          1.13909        3.85213        1.17406
C          1.15450        5.24297        1.19477
C          1.59349        5.95367        0.08111
C          2.00956        5.27168       -1.05973
C          1.97817        3.88253       -1.09480
C         -0.95801        1.43350        0.27346
C         -1.99704        0.45558        0.32828
C         -3.32917        0.82274        0.51365
C         -4.36106       -0.12133        0.57191
C         -5.71324        0.28062        0.76252
C         -6.68202       -0.68397        0.81244
C         -8.12115       -0.67864        0.98613
C         -8.95688        0.45462        1.16566
N         -9.60694        1.40323        1.31026
C         -8.50731       -1.98438        0.94209
C         -9.80552       -2.55231        1.05908
N        -10.87069       -2.99700        1.15653
C         -6.33914       -2.05871        0.67579
O         -7.46936       -2.83661        0.75789
C         -5.07128       -2.50711        0.49194
C         -4.03798       -1.52438        0.43565
H         -2.45380       -2.94374        0.14414
H         -0.07736       -2.39164       -0.12363
H          0.81715        3.28413        2.04144
H          0.83461        5.77044        2.08792
H          1.61278        7.03876        0.10220
H          2.35144        5.82273       -1.93011
H          2.28657        3.34104       -1.98331
H         -1.20122        2.48644        0.37149
H         -3.57696        1.87647        0.61652
H         -5.95948        1.33320        0.86489
H         -4.84466       -3.56270        0.39126
