43
anti_O_NPh_3-CN_2-CN.log	Energy: -776620.8849664
C          1.02294        1.67759        0.09862
C         -0.16419        0.93329        0.08280
C         -1.43302        1.56653        0.13614
C         -2.57415        0.80238        0.12064
C         -3.97494        1.12217        0.14680
C         -4.64878       -0.06162        0.09841
C         -6.06026       -0.25185        0.12144
N         -7.21196       -0.38373        0.13380
C         -2.47798       -0.63206        0.05534
N         -3.76833       -1.14125        0.04426
C         -4.12309       -2.51643        0.00077
C         -3.62114       -3.38508        0.96952
C         -3.95663       -4.73331        0.92193
C         -4.80665       -5.20920       -0.07330
C         -5.31426       -4.33433       -1.02943
C         -4.96505       -2.98835       -1.00418
C         -1.27638       -1.28506       -0.01083
C         -0.08669       -0.50809        0.00446
C          1.17545       -1.11065       -0.05580
C          2.35594       -0.36856       -0.04063
C          3.63145       -1.00924       -0.10252
C          4.75574       -0.23693       -0.08384
C          6.18817       -0.49252       -0.12777
C          6.83375       -1.75455       -0.20956
N          7.33699       -2.79716       -0.27619
C          6.78864        0.72118       -0.07419
C          4.65159        1.18346       -0.00407
O          5.90935        1.74331       -0.00002
C          3.47655        1.85534        0.05737
C          2.27707        1.07500        0.03995
H          0.96061        2.76179        0.15799
H         -1.48802        2.65051        0.18357
H         -4.42657        2.10156        0.20133
H         -2.98088       -2.99758        1.75574
H         -3.56446       -5.41017        1.67450
H         -5.07487       -6.26058       -0.10183
H         -5.97752       -4.69992       -1.80676
H         -5.34127       -2.30494       -1.75852
H         -1.21677       -2.36653       -0.07867
H          1.23743       -2.19468       -0.11653
H          3.69037       -2.09189       -0.16316
H          7.83273        0.99719       -0.08100
H          3.43573        2.93743        0.11726
