45
anti_S_S_benz_p-CF3benz.log	Energy: -1337986.1319421
C         -3.64340        1.02073       -0.00483
C         -4.64768        0.04947       -0.00431
C         -6.02834        0.40135       -0.00590
C         -6.99313       -0.56690       -0.00536
C         -8.44442       -0.41393       -0.00677
C         -9.18921        0.76505       -0.00899
C        -10.57407        0.69638       -0.01004
C        -11.40889        1.94652       -0.01255
F        -10.66062        3.06108       -0.01264
F        -12.20959        2.00026       -1.09238
F        -12.21270        2.00251        1.06485
C         -9.11095       -1.64865       -0.00563
C        -10.50275       -1.72075       -0.00669
C        -11.22916       -0.54088       -0.00890
C         -6.61027       -1.95214       -0.00316
S         -8.01279       -3.02473       -0.00284
C         -5.30317       -2.33615       -0.00158
C         -4.27896       -1.34173       -0.00211
C         -2.92547       -1.68321       -0.00056
C         -1.92138       -0.71221       -0.00108
C         -0.54022       -1.06375        0.00051
C          0.42552       -0.09667       -0.00004
C          1.87721       -0.25188        0.00134
C          2.62508       -1.43049        0.00358
C          4.01157       -1.36580        0.00461
C          2.54418        0.98308        0.00017
C          3.93397        1.05630        0.00119
C          4.66106       -0.12828        0.00342
C          0.04197        1.28970       -0.00226
S          1.44223        2.36212       -0.00263
C         -1.26552        1.67305       -0.00383
C         -2.29018        0.67905       -0.00328
H         -3.92439        2.07149       -0.00649
H         -6.29923        1.45411       -0.00756
H         -8.69284        1.72923       -0.00989
H        -11.01150       -2.67902       -0.00579
H        -12.31383       -0.57476       -0.00974
H         -5.02095       -3.38504        0.00008
H         -2.64446       -2.73399        0.00111
H         -0.26977       -2.11659        0.00218
H          2.12307       -2.39380        0.00451
H          4.59452       -2.28130        0.00635
H          4.44062        2.01619        0.00027
H          5.74597       -0.08826        0.00424
H         -1.54772        2.72197       -0.00550
