39
anti_C_O_3-Cl_diCF3.log	Energy: -1241070.8106668
C         -2.90234        0.50911       -0.62485
C         -3.95191        0.26734        0.25790
C         -5.28065        0.69289       -0.04804
C         -6.27867        0.43938        0.85010
C         -7.70710        0.69448        0.91283
C         -8.51490        1.42869       -0.10814
F         -7.95615        1.30018       -1.32503
F         -9.76782        0.96474       -0.19116
F         -8.58247        2.74058        0.15925
C         -8.11993        0.19419        2.09735
C         -9.47965        0.12372        2.74284
F        -10.16532       -0.93951        2.30790
F         -9.35857        0.02398        4.06789
F        -10.19175        1.21959        2.46657
C         -5.98175       -0.24850        2.06564
O         -7.12595       -0.39053        2.80872
C         -4.74830       -0.68407        2.41792
C         -3.68021       -0.42945        1.50081
C         -2.37926       -0.83709        1.77804
C         -1.32200       -0.59274        0.88874
C         -0.00258       -1.00643        1.17156
C          1.03621       -0.76327        0.29231
C          2.40073       -1.16507        0.53446
Cl         2.78801       -2.00961        2.01717
C          3.39591       -0.90896       -0.35206
C          0.76902       -0.06791       -0.94960
C          1.84920        0.18399       -1.86141
C          3.11151       -0.22060       -1.57330
C         -0.52207        0.34012       -1.23291
C         -1.59108        0.09880       -0.34533
H         -3.10492        1.03091       -1.55721
H         -5.47592        1.20862       -0.98138
H         -4.56860       -1.20262        3.35308
H         -2.17382       -1.35938        2.70926
H          0.19065       -1.52674        2.10385
H          4.40963       -1.22668       -0.13473
H          1.63054        0.70686       -2.78810
H          3.92529       -0.02832       -2.26497
H         -0.72104        0.86218       -2.16596
