43
anti_S_O_2-OMe_m-CF3benz.log	Energy: -1110765.2953480
C         -2.72466       -1.86702       -0.26823
C         -1.66162       -1.00955        0.02600
C         -0.33362       -1.29838       -0.41125
C          0.67515       -0.43321       -0.10153
C          2.10589       -0.38116       -0.35798
C          3.02018       -1.19609       -1.01975
C          4.35390       -0.80997       -1.05444
C          2.55037        0.79792        0.25106
C          3.87127        1.20597        0.23178
C          4.76859        0.37543       -0.43539
C          6.21474        0.77870       -0.54622
F          7.03536       -0.27497       -0.39368
F          6.48508        1.31029       -1.75215
F          6.55778        1.69331        0.37484
C          0.39415        0.74874        0.65473
O          1.53668        1.48301        0.86072
C         -0.84330        1.07973        1.09837
C         -1.91986        0.18974        0.78743
C         -3.22467        0.45429        1.20539
C         -4.28809       -0.40415        0.91050
C         -5.61722       -0.12672        1.34071
C         -6.64302       -0.98360        1.03907
C         -8.04437       -0.87991        1.38059
C         -8.76422       -1.92335        0.90705
O        -10.06687       -2.20189        1.00232
C        -10.84860       -1.25867        1.71580
C         -6.36291       -2.17542        0.27795
S         -7.82545       -3.12015        0.01148
C         -5.10840       -2.48133       -0.15410
C         -4.02832       -1.59935        0.15136
H         -2.52913       -2.77049       -0.84188
H         -0.14699       -2.20272       -0.98396
H          2.70096       -2.11694       -1.49718
H          5.08544       -1.43144       -1.55903
H          4.18768        2.12176        0.71542
H         -1.02089        1.98459        1.66944
H         -3.42097        1.35733        1.77893
H         -5.80752        0.77724        1.91344
H         -8.45708       -0.05717        1.94981
H        -11.87026       -1.63644        1.69514
H        -10.80416       -0.27545        1.23291
H        -10.50240       -1.17478        2.75261
H         -4.90953       -3.38265       -0.72708
