51
anti_O_NPh_3-F_m-OMebenz.log	Energy: -891379.0764282
C         -2.93281       -1.70571        0.13789
C         -1.87095       -0.80190        0.10314
C         -0.51458       -1.24622        0.06012
C          0.49932       -0.33438        0.02975
C          1.94600       -0.44725       -0.02755
C          2.82836       -1.52710       -0.05173
C          4.19117       -1.29431       -0.08906
C          2.46130        0.85837       -0.04591
C          3.82999        1.12112       -0.07165
C          4.68837        0.02197       -0.09487
O          6.04024        0.12462       -0.12298
C          6.60988        1.41370       -0.12552
C          0.20282        1.07689        0.04520
N          1.41105        1.77504       -0.00259
C          1.54400        3.18374       -0.00851
C          0.98950        3.94031        1.02457
C          1.11349        5.32535        1.01051
C          1.80695        5.95805       -0.01813
C          2.36754        5.19990       -1.04268
C          2.22822        3.81603       -1.04748
C         -1.07444        1.55214        0.07304
C         -2.15207        0.61408        0.10582
C         -3.48122        1.03281        0.14033
C         -4.55005        0.12889        0.17439
C         -5.90022        0.58098        0.20957
C         -6.90494       -0.34696        0.24277
C         -8.34533       -0.31250        0.28275
F         -9.08393        0.79474        0.29740
C         -8.79349       -1.58041        0.30216
C         -6.60501       -1.74154        0.24200
O         -7.75744       -2.47905        0.27819
C         -5.33780       -2.23133        0.20911
C         -4.26693       -1.28821        0.17395
H         -2.71601       -2.77177        0.13600
H         -0.30839       -2.31336        0.04695
H          2.45147       -2.54568       -0.03868
H          4.90460       -2.11037       -0.11037
H          4.19550        2.14010       -0.06399
H          7.68997        1.26519       -0.15176
H          6.34294        1.97370        0.77993
H          6.30174        1.98812       -1.00884
H          0.46953        3.43568        1.83287
H          0.67730        5.91062        1.81428
H          1.90878        7.03883       -0.02199
H          2.90285        5.68778       -1.85162
H          2.63894        3.21786       -1.85504
H         -1.28923        2.61620        0.06589
H         -3.69785        2.09891        0.14064
H         -6.11510        1.64522        0.20945
H         -9.78789       -1.99616        0.33211
H         -5.13869       -3.29778        0.20911
