43
anti_C_S_3-Cl_p-OMebenz.log	Energy: -1189098.7922527
C         -2.85988       -1.54441        0.09203
C         -1.84731       -0.59458        0.06622
C         -0.46906       -0.96868       -0.00513
C          0.50976       -0.02052       -0.02996
C          1.95797       -0.20300       -0.10143
C          2.66854       -1.39512       -0.16079
C          4.06177       -1.36885       -0.22567
O          4.66819       -2.58299       -0.28125
C          6.07563       -2.62126       -0.34367
C          2.64705        1.02122       -0.10692
C          4.03147        1.05215       -0.17116
C          4.74167       -0.14505       -0.23081
C          0.15321        1.37716        0.01682
S          1.57266        2.42409       -0.02613
C         -1.14250        1.78371        0.08517
C         -2.19101        0.80867        0.11202
C         -3.52787        1.17699        0.18053
C         -4.55800        0.22031        0.20646
C         -5.91577        0.59245        0.27521
C         -6.92667       -0.35277        0.30038
C         -8.32930       -0.02538        0.36979
Cl        -8.80982        1.65719        0.42573
C         -9.29386       -0.98072        0.39304
C         -6.58480       -1.75789        0.25550
C         -7.63238       -2.73807        0.28194
C         -8.93525       -2.36368        0.34820
C         -5.25199       -2.12871        0.18778
C         -4.21477       -1.17686        0.16122
H         -2.60078       -2.60026        0.05771
H         -0.21765       -2.02567       -0.03950
H          2.16655       -2.35726       -0.15827
H          6.34613       -3.67723       -0.37641
H          6.53173       -2.15932        0.54158
H          6.45340       -2.12410       -1.24656
H          4.56866        1.99532       -0.17576
H          5.82340       -0.10863       -0.28110
H         -1.40436        2.83727        0.11991
H         -3.78916        2.23209        0.21499
H         -6.16373        1.64817        0.30878
H        -10.33838       -0.69426        0.44560
H         -7.35704       -3.78839        0.24756
H         -9.72440       -3.10840        0.36803
H         -4.99740       -3.18563        0.15399
