32
anti_S_O_2-CN_2-CN.log	Energy: -846809.0673536
C          1.12799       -1.31713       -0.00008
C          2.30720       -0.56543        0.00020
C          3.58306       -1.19906        0.00051
C          4.71086       -0.42228        0.00078
C          6.13140       -0.68134        0.00113
C          6.72362        0.53379        0.00125
C          8.10612        0.87258        0.00158
N          9.23796        1.12063        0.00185
C          4.59333        1.00232        0.00073
O          5.83432        1.57548        0.00103
C          3.40955        1.66688        0.00044
C          2.21881        0.87899        0.00016
C          0.95705        1.47622       -0.00015
C         -0.21942        0.72193       -0.00042
C         -1.49966        1.34004       -0.00073
C         -2.63762        0.57404       -0.00099
C         -4.01318        1.00609       -0.00131
C         -4.88675       -0.02846       -0.00151
C         -6.30555        0.08037       -0.00183
N         -7.46214        0.16574       -0.00210
C         -2.53515       -0.86203       -0.00095
S         -4.12195       -1.61772       -0.00130
C         -1.32710       -1.49550       -0.00066
C         -0.13180       -0.71765       -0.00039
H          1.19667       -2.40243       -0.00005
H          3.64281       -2.28329        0.00054
H          6.63721       -1.63540        0.00127
H          3.36083        2.75014        0.00042
H          0.88732        2.56133       -0.00018
H         -1.56633        2.42464       -0.00076
H         -4.32223        2.04436       -0.00140
H         -1.25363       -2.57902       -0.00063
