47
anti_C_NPh_2-CF3_diCl.log	Energy: -1450505.2078591
C         -2.19417       -1.46756        1.77467
C         -3.23973       -0.62044        1.41161
C         -4.57252       -0.85609        1.85879
C         -5.56876       -0.00200        1.47712
C         -6.98262        0.05841        1.74361
Cl        -7.87256       -1.05995        2.69807
C         -7.47423        1.14624        1.09487
Cl        -9.09397        1.68550        1.02737
C         -5.27775        1.12521        0.62959
N         -6.46655        1.81572        0.41135
C         -6.59419        2.98976       -0.38124
C         -6.32285        2.92161       -1.74654
C         -6.41530        4.07205       -2.52240
C         -6.79363        5.27914       -1.94011
C         -7.06951        5.33870       -0.57655
C         -6.95967        4.19700        0.20987
C         -4.01828        1.39932        0.18312
C         -2.95915        0.52309        0.56497
C         -1.65059        0.74246        0.14014
C         -0.59923       -0.10943        0.50574
C          0.72811        0.10988        0.07627
C          1.75689       -0.73769        0.44298
C          3.10763       -0.51834        0.00819
C          4.10126       -1.36370        0.38088
C          5.51836       -1.14679       -0.06343
F          5.98182       -2.20818       -0.74994
F          5.65688       -0.06899       -0.85038
F          6.33995       -0.98321        0.99050
C          1.47832       -1.87741        1.28538
C          2.56914       -2.74073        1.65022
C          3.83073       -2.49865        1.21863
C          0.18405       -2.10427        1.71309
C         -0.87819       -1.24764        1.34692
H         -2.40592       -2.32490        2.40956
H         -4.78398       -1.70747        2.49903
H         -6.04464        1.96955       -2.18760
H         -6.20226        4.02179       -3.58557
H         -6.87273        6.17418       -2.54925
H         -7.36091        6.27909       -0.11950
H         -7.15292        4.23391        1.27707
H         -3.81180        2.25916       -0.44629
H         -1.43682        1.59993       -0.49397
H          0.94074        0.96757       -0.55799
H          3.31953        0.33718       -0.62484
H          2.35979       -3.59807        2.28392
H          4.64788       -3.15539        1.49851
H         -0.02836       -2.96186        2.34756
