40
anti_O_O_2-Cl_m-OMebenz.log	Energy: -985038.1976427
C         -2.94129       -1.76135       -0.02981
C         -1.85801       -0.88440        0.03591
C         -0.51423       -1.35067       -0.11042
C          0.51609       -0.45983       -0.03993
C          1.96394       -0.53857       -0.13591
C          2.89780       -1.55604       -0.33927
C          4.24385       -1.23795       -0.37150
C          2.42352        0.76842        0.02843
C          3.76214        1.12723        0.00254
C          4.67641        0.09140       -0.20255
O          6.01746        0.26989       -0.25525
C          6.52161        1.57729       -0.09314
C          0.23977        0.92988        0.17960
O          1.40222        1.65995        0.21861
C         -1.00825        1.43523        0.32624
C         -2.10808        0.52042        0.25622
C         -3.42425        0.95587        0.39637
C         -4.51321        0.07830        0.33089
C         -5.85128        0.54831        0.47738
C         -6.88537       -0.34584        0.40626
C         -8.32814       -0.26421        0.50185
C         -8.76268       -1.52826        0.34158
Cl       -10.34928       -2.16069        0.34085
C         -6.60336       -1.72880        0.18705
O         -7.77598       -2.44401        0.15007
C         -5.35610       -2.24145        0.03962
C         -4.26209       -1.32608        0.11047
H         -2.75179       -2.81953       -0.19585
H         -0.33539       -2.40952       -0.27587
H          2.57756       -2.58499       -0.47087
H          4.99865       -2.00060       -0.52710
H          4.05495        2.16041        0.13646
H          7.60596        1.49249       -0.16974
H          6.25855        1.98966        0.88925
H          6.15390        2.24925       -0.87902
H         -1.17919        2.49366        0.49106
H         -3.61369        2.01403        0.56235
H         -6.02972        1.60679        0.64289
H         -8.94045        0.60905        0.66551
H         -5.18725       -3.30007       -0.12539
