45
anti_O_NPh_3-OMe_3-Cl.log	Energy: -1021128.4183764
C          0.65797        0.63161        2.52589
C         -0.69298        0.42427        2.22429
C         -1.71605        0.70816        3.16970
C         -3.02466        0.49302        2.83023
C         -4.27490        0.64350        3.53084
Cl        -4.45370        1.23042        5.14490
C         -5.27562        0.26020        2.70239
C         -3.36915       -0.00794        1.52570
N         -4.75634       -0.13233        1.47707
C         -5.53031       -0.59443        0.38773
C         -5.31111       -0.08719       -0.89410
C         -6.08123       -0.54504       -1.95719
C         -7.08445       -1.48755       -1.74677
C         -7.30946       -1.97947       -0.46413
C         -6.52872       -1.54530        0.60160
C         -2.41580       -0.31449        0.59415
C         -1.04804       -0.09928        0.92565
C         -0.02622       -0.38549        0.01492
C          1.32112       -0.17984        0.31642
C          2.34648       -0.47899       -0.63033
C          3.64810       -0.25721       -0.28295
C          4.92528       -0.42830       -0.94302
O          5.02871       -0.90826       -2.19648
C          6.35029       -1.01015       -2.68274
C          5.87406       -0.02527       -0.06818
C          3.97962        0.26456        1.00398
O          5.33067        0.40228        1.12614
C          3.05006        0.56821        1.94652
C          1.67632        0.34813        1.61633
H          0.92085        1.02661        3.50469
H         -1.45264        1.08445        4.15417
H         -6.34323        0.25874        2.86855
H         -4.55258        0.67362       -1.04667
H         -5.90601       -0.14869       -2.95266
H         -7.68850       -1.83620       -2.57842
H         -8.08626       -2.71806       -0.29161
H         -6.67744       -1.95171        1.59748
H         -2.67424       -0.72287       -0.37753
H         -0.28966       -0.78199       -0.96334
H          2.08434       -0.87564       -1.60643
H          6.94520       -1.69038       -2.05847
H          6.83538       -0.02499       -2.70589
H          6.28136       -1.40830       -3.69518
H          6.94978        0.02386       -0.12616
H          3.32955        0.96346        2.91735
