50
anti_S_NPh_3-CN_diOMe.log	Energy: -1065116.9920176
C          0.36802       -0.82272       -1.46324
C         -0.86902       -0.92965       -0.82248
C         -2.00492       -1.48218       -1.48090
C         -3.20011       -1.55977       -0.81783
C         -4.49893       -2.06553       -1.18034
O         -4.82839       -2.61402       -2.39030
C         -4.98819       -1.64899       -3.41822
C         -5.31023       -1.91304       -0.08871
O         -6.58768       -2.20192        0.15673
C         -7.34744       -2.76517       -0.90529
C         -3.30368       -1.09974        0.54289
N         -4.60765       -1.33692        0.96751
C         -5.14408       -1.00032        2.23672
C         -5.76650       -1.97288        3.01816
C         -6.28006       -1.62940        4.26341
C         -6.15595       -0.32733        4.74155
C         -5.52608        0.63836        3.96158
C         -5.02975        0.30851        2.70493
C         -2.24138       -0.57781        1.21997
C         -0.98913       -0.47211        0.54378
C          0.13275        0.06246        1.17863
C          1.36923        0.16996        0.53516
C          2.50601        0.71770        1.19113
C          3.70150        0.80795        0.52999
C          4.97584        1.32843        1.00374
C          5.16115        1.85332        2.31718
N          5.27928        2.27395        3.39159
C          5.95850        1.26250        0.07219
C          3.81138        0.35010       -0.82513
S          5.44858        0.57799       -1.43947
C          2.74671       -0.18197       -1.49195
C          1.48984       -0.28688       -0.82690
H          0.45919       -1.16875       -2.49059
H         -1.90679       -1.85284       -2.49738
H         -5.17733       -2.20161       -4.34074
H         -4.08610       -1.03685       -3.53623
H         -5.83703       -0.98443       -3.20634
H         -6.89526       -3.69305       -1.26247
H         -7.43474       -2.05888       -1.73705
H         -8.33342       -2.95954       -0.48332
H         -5.84549       -2.98774        2.64478
H         -6.76849       -2.38732        4.86819
H         -6.54922       -0.06632        5.71915
H         -5.43046        1.65691        4.32510
H         -4.55666        1.05949        2.07999
H         -2.32491       -0.25353        2.25236
H          0.04408        0.40593        2.20690
H          2.41857        1.06292        2.21818
H          6.98256        1.58860        0.19737
H          2.83453       -0.52772       -2.51794
