54
anti_S_NPh_diCF3_m-CNbenz.log	Energy: -1440703.4172074
C         -2.39090       -2.12563        0.20105
C         -1.42422       -1.12171        0.14257
C         -0.05269       -1.42597       -0.10763
C          0.86538       -0.41833       -0.15610
C          2.29855       -0.38849       -0.39492
C          3.24253       -1.37996       -0.64200
C          4.57145       -1.02116       -0.81834
C          2.69269        0.96384       -0.32963
C          4.01837        1.34340       -0.49215
C          4.94909        0.32983       -0.73996
C          6.33045        0.68366       -0.91868
N          7.44452        0.96898       -1.06477
C          0.45817        0.94883        0.04702
N          1.58462        1.76187       -0.06459
C          1.59832        3.17366        0.07302
C          1.15113        3.75899        1.25726
C          1.15830        5.14368        1.38579
C          1.62949        5.94206        0.34660
C          2.08414        5.35273       -0.83005
C          2.05911        3.96958       -0.97520
C         -0.84111        1.29232        0.27901
C         -1.82035        0.25474        0.33469
C         -3.16513        0.53752        0.57146
C         -4.13612       -0.46874        0.62952
C         -5.50207       -0.16425        0.87145
C         -6.43473       -1.17035        0.92374
C         -7.86735       -1.08345        1.15530
C         -8.51216        0.25434        1.38002
F         -8.29823        1.06109        0.32507
F         -9.82949        0.19006        1.57668
F         -7.97086        0.86161        2.45143
C         -8.47458       -2.29269        1.13825
C         -9.93429       -2.62790        1.33501
F        -10.37414       -2.24897        2.53863
F        -10.70589       -2.05485        0.40655
F        -10.11516       -3.95690        1.24224
C         -6.02346       -2.53071        0.73318
S         -7.38497       -3.62949        0.84399
C         -4.72120       -2.86748        0.49806
C         -3.73841       -1.84012        0.43959
H         -2.08742       -3.15999        0.05597
H          0.24103       -2.46099       -0.26105
H          2.94648       -2.42305       -0.69416
H          5.32615       -1.77432       -1.01400
H          4.33024        2.37951       -0.42713
H          0.80694        3.12535        2.06876
H          0.80742        5.59860        2.30685
H          1.64267        7.02207        0.45384
H          2.44845        5.97086       -1.64455
H          2.38882        3.50111       -1.89753
H         -1.14299        2.32571        0.41596
H         -3.47073        1.57119        0.71520
H         -5.79220        0.87130        1.01285
H         -4.42029       -3.90118        0.35480
