42
anti_C_S_2-CF3_diCF3.log	Energy: -1366797.5524549
C         -2.74641        0.37499        1.66079
C         -3.93204        0.16427        0.96087
C         -5.18947        0.55945        1.50061
C         -6.34199        0.34226        0.79311
C         -7.71492        0.66262        1.15184
C         -8.01176        1.32933        2.46501
F         -7.56312        0.57528        3.48465
F         -7.37527        2.51152        2.54424
F         -9.30925        1.55519        2.67189
C         -8.60264        0.29986        0.19815
C        -10.10553        0.45772        0.18694
F        -10.68253       -0.20883        1.19076
F        -10.47079        1.74022        0.26848
F        -10.60754       -0.03076       -0.96042
C         -6.27748       -0.28693       -0.49790
S         -7.87408       -0.45431       -1.20409
C         -5.09804       -0.68258       -1.05412
C         -3.88237       -0.46815       -0.33796
C         -2.65089       -0.85296       -0.85963
C         -1.45535       -0.64233       -0.15703
C         -0.20211       -1.02983       -0.67901
C          0.97006       -0.81675        0.02264
C          2.24686       -1.20931       -0.50443
C          3.38366       -0.98961        0.20239
C          4.72696       -1.39321       -0.33437
F          4.64950       -1.97280       -1.54131
F          5.54296       -0.32941       -0.44906
F          5.33869       -2.26133        0.49198
C          0.92223       -0.18399        1.31982
C          2.15774        0.02470        2.02557
C          3.34264       -0.36057        1.49283
C         -0.29783        0.20031        1.84309
C         -1.50391       -0.01065        1.13887
H         -2.78499        0.85100        2.63772
H         -5.21468        1.03191        2.47655
H         -5.06215       -1.15725       -2.03021
H         -2.61215       -1.32905       -1.83655
H         -0.16342       -1.50639       -1.65578
H          2.28596       -1.68505       -1.47885
H          2.12180        0.50078        3.00137
H          4.27067       -0.19972        2.03144
H         -0.33657        0.67688        2.81986
