51
anti_O_NPh_diOMe_diCN.log	Energy: -920301.8213501
C         -0.08065       -0.46220       -1.74967
C         -1.36072       -0.52239       -1.17783
C         -2.52195       -0.63482       -1.98286
C         -3.75248       -0.68588       -1.37785
C         -5.09818       -0.80996       -1.88566
C         -5.48066       -0.90185       -3.24745
N         -5.75478       -0.97587       -4.37227
C         -5.93766       -0.81557       -0.79655
C         -7.35838       -0.89904       -0.79773
N         -8.51474       -0.97428       -0.80770
C         -3.86372       -0.62296        0.04831
N         -5.21595       -0.70373        0.37433
C         -5.75697       -0.65894        1.69062
C         -6.55122       -1.70566        2.15187
C         -7.08294       -1.64357        3.43550
C         -6.80357       -0.55623        4.25823
C         -5.99857        0.48074        3.79291
C         -5.47976        0.43849        2.50394
C         -2.76959       -0.52727        0.86538
C         -1.48508       -0.47242        0.26090
C         -0.32071       -0.37066        1.03424
C          0.94939       -0.31360        0.46487
C          2.12436       -0.21012        1.27394
C          3.34664       -0.15992        0.66652
C          4.71619       -0.05491        1.11660
O          5.13714        0.03067        2.41240
C          5.07614       -1.20881        3.10334
C          5.48262       -0.03489       -0.00930
O          6.77662        0.06170       -0.26395
C          7.64726        0.17919        0.85732
C          3.43529       -0.19592       -0.76090
O          4.74735       -0.11012       -1.15197
C          2.36777       -0.29197       -1.58516
C          1.07056       -0.35860       -0.97773
H          0.00995       -0.49759       -2.83285
H         -2.43113       -0.68338       -3.06428
H         -6.74879       -2.55853        1.51062
H         -7.71003       -2.45330        3.79412
H         -7.21506       -0.51526        5.26174
H         -5.78461        1.33364        4.42912
H         -4.87040        1.25051        2.12001
H         -2.86474       -0.49741        1.94602
H         -0.41305       -0.33469        2.11742
H          2.02824       -0.16191        2.35459
H          4.06319       -1.62811        3.08281
H          5.36632       -1.00528        4.13568
H          5.76823       -1.93830        2.66186
H          8.64399        0.30625        0.43637
H          7.61581       -0.72787        1.46911
H          7.37908        1.04259        1.47055
H          2.47725       -0.31395       -2.66408
