46
anti_O_NPh_3-CN_2-OMe.log	Energy: -790606.2903531
C          1.10059        1.62241        0.07105
C         -0.09215        0.89555        0.02954
C         -1.36138        1.54373        0.04383
C         -2.51025        0.79957        0.00627
C         -3.91211        1.13414       -0.00466
C         -4.58700       -0.04886       -0.06219
O         -5.89010       -0.33039       -0.08458
C         -6.75194        0.79249       -0.01631
C         -2.42103       -0.64001       -0.04589
N         -3.72340       -1.13537       -0.08947
C         -4.09757       -2.50382       -0.07751
C         -3.59978       -3.34303        0.91916
C         -3.94092       -4.69120        0.92034
C         -4.79356       -5.19915       -0.05587
C         -5.29839       -4.35416       -1.04085
C         -4.94473       -3.00975       -1.06220
C         -1.23301       -1.30728       -0.07502
C         -0.02693       -0.54596       -0.03402
C          1.22306       -1.16548       -0.05477
C          2.41702       -0.43890       -0.01415
C          3.68278       -1.09557       -0.03596
C          4.81845       -0.33772        0.00678
C          6.24853       -0.61064        0.00404
C          6.88346       -1.87959       -0.04960
N          7.38019       -2.92673       -0.09373
C          6.86238        0.59637        0.06389
C          4.72901        1.08204        0.07166
O          5.99325        1.62845        0.10547
C          3.55896        1.76838        0.09528
C          2.35253        1.00375        0.05176
H          1.05184        2.70810        0.11942
H         -1.40095        2.62906        0.07989
H         -4.34124        2.12364        0.02618
H         -7.76671        0.39632       -0.03356
H         -6.59397        1.45395       -0.87587
H         -6.58409        1.35137        0.91126
H         -2.95238       -2.93295        1.68790
H         -3.54779       -5.34274        1.69472
H         -5.06408       -6.25048       -0.04926
H         -5.96213       -4.74506       -1.80597
H         -5.32101       -2.34821       -1.83458
H         -1.18594       -2.39025       -0.13272
H          1.27209       -2.25108       -0.10448
H          3.72929       -2.17956       -0.08590
H          7.90948        0.86000        0.08325
H          3.53005        2.85151        0.14491
