46
anti_S_O_m-OMebenz_tetFbenz.log	Energy: -1244708.8107126
C         -3.80034        1.11650        0.00321
C         -4.80846        0.14890        0.00376
C         -6.18719        0.51967        0.00475
C         -7.13541       -0.46110        0.00526
C         -8.58701       -0.48597        0.00625
C         -9.58095        0.48014        0.00708
F         -9.27349        1.77788        0.00706
C        -10.91179        0.08599        0.00794
F        -11.88667        0.99323        0.00874
C         -8.93756       -1.84044        0.00630
C        -10.25826       -2.25593        0.00715
F        -10.59650       -3.54233        0.00720
C        -11.24216       -1.27152        0.00797
F        -12.52355       -1.62465        0.00879
C         -6.74833       -1.83803        0.00480
O         -7.85241       -2.66189        0.00544
C         -5.45879       -2.25312        0.00385
C         -4.44064       -1.24703        0.00330
C         -3.08691       -1.58644        0.00232
C         -2.08059       -0.61718        0.00177
C         -0.69995       -0.97086        0.00076
C          0.26795       -0.00521        0.00024
C          1.71742       -0.15697       -0.00080
C          2.47895       -1.33105       -0.00151
C          3.85772       -1.26534       -0.00245
C          2.38582        1.07223       -0.00107
C          3.77656        1.16413       -0.00202
C          4.51117       -0.02048       -0.00271
O          5.86370       -0.07753       -0.00366
C          6.58267        1.13632       -0.00395
C         -0.11607        1.38166        0.00071
S          1.28656        2.45255       -0.00010
C         -1.42228        1.76716        0.00167
C         -2.44787        0.77372        0.00223
H         -4.07997        2.16760        0.00356
H         -6.46465        1.56869        0.00510
H         -5.19823       -3.30581        0.00352
H         -2.80666       -2.63729        0.00198
H         -0.43096       -2.02407        0.00042
H          1.98730       -2.29961       -0.00131
H          4.46574       -2.16316       -0.00301
H          4.25920        2.13398       -0.00221
H          7.63742        0.86018       -0.00470
H          6.36463        1.73190        0.89164
H          6.36343        1.73218       -0.89905
H         -1.70338        2.81643        0.00202
