44
anti_S_S_3-OMe_m-OMebenz.log	Energy: -1173837.5393262
C         -2.71734       -1.76519       -0.46757
C         -1.73161       -0.86367       -0.06655
C         -0.36159       -1.04234       -0.42243
C          0.58744       -0.14604       -0.01928
C          2.02276       -0.14861       -0.27459
C          2.78601       -1.07189       -0.99780
C          4.14940       -0.89741       -1.12779
C          2.67370        0.94495        0.30687
C          4.04842        1.14245        0.18961
C          4.78503        0.20779       -0.53607
O          6.12386        0.27691       -0.72887
C          6.82342        1.36224       -0.16140
C          0.19556        0.99040        0.77364
S          1.57509        2.01400        1.18155
C         -1.09843        1.20343        1.13795
C         -2.10741        0.27818        0.72720
C         -3.44555        0.45168        1.07505
C         -4.43660       -0.45263        0.67600
C         -5.80074       -0.27372        1.03448
C         -6.74155       -1.18411        0.63134
C         -8.17284       -1.18559        0.88526
O         -8.78178       -0.20944        1.61633
C         -8.68932       -0.41161        3.01972
C         -8.81642       -2.22171        0.31110
C         -6.36088       -2.30851       -0.17196
S         -7.76157       -3.29255       -0.58956
C         -5.06297       -2.51627       -0.54096
C         -4.06130       -1.59384       -0.12022
H         -2.43312       -2.62626       -1.06853
H         -0.08753       -1.90692       -1.02182
H          2.30779       -1.93047       -1.46041
H          4.75815       -1.60150       -1.68418
H          4.51766        2.00155        0.65376
H          7.86935        1.22140       -0.43546
H          6.73349        1.37010        0.93238
H          6.47007        2.32109       -0.56170
H         -1.38425        2.06407        1.73603
H         -3.73011        1.31397        1.67403
H         -6.09452        0.59398        1.61913
H         -7.64444       -0.48717        3.34552
H         -9.22203       -1.32318        3.31764
H         -9.15602        0.45583        3.48929
H         -9.87834       -2.42074        0.36039
H         -4.77674       -3.36727       -1.15268
