37
anti_S_O_m-CNbenz_diF.log	Energy: -1009838.8671750
C         -3.77551        0.55571       -0.90526
C         -4.79039       -0.25153       -0.38095
C         -6.16475        0.02935       -0.63936
C         -7.11633       -0.79129       -0.10254
C         -8.55577       -0.85357       -0.12144
F         -9.37298       -0.01365       -0.74927
C         -8.90156       -1.92300        0.61742
F        -10.07248       -2.41942        0.91626
C         -6.73126       -1.90832        0.70181
O         -7.84476       -2.59214        1.13526
C         -5.44503       -2.22739        0.98325
C         -4.42663       -1.38694        0.43552
C         -3.07491       -1.64245        0.67526
C         -2.06611       -0.83333        0.14944
C         -0.68870       -1.09960        0.39803
C          0.28110       -0.29248       -0.12782
C          1.72939       -0.39667        0.00976
C          2.46845       -1.34918        0.71369
C          3.85158       -1.28048        0.72667
C          2.40249        0.62592       -0.68088
C          3.78819        0.71015       -0.67872
C          4.50865       -0.25287        0.03179
C          5.94366       -0.18895        0.05029
N          7.10166       -0.14020        0.06706
C         -0.09288        0.83471       -0.93866
S          1.31341        1.73506       -1.51052
C         -1.39637        1.12769       -1.20304
C         -2.42644        0.29805       -0.66399
H         -4.04892        1.41030       -1.51968
H         -6.43694        0.88234       -1.25259
H         -5.19019       -3.08363        1.59821
H         -2.80042       -2.49680        1.28974
H         -0.42502       -1.95604        1.01333
H          1.96250       -2.14472        1.25178
H          4.43509       -2.01510        1.27021
H          4.30922        1.49845       -1.21100
H         -1.67221        1.98057       -1.81631
