44
anti_S_O_benz_diOMe.log	Energy: -971161.7112521
C         -3.80468       -0.36148       -1.50623
C         -4.85846       -0.55256       -0.60751
C         -6.21926       -0.51675       -1.03860
C         -7.21316       -0.71449       -0.12043
C         -8.65838       -0.75014       -0.15751
O         -9.44416       -0.56643       -1.25902
C         -9.45445       -1.68710       -2.13106
C         -9.06221       -0.97847        1.12280
O        -10.23009       -1.10060        1.73421
C        -11.39467       -0.97428        0.92525
C         -6.87931       -0.93724        1.24947
O         -8.02238       -1.08767        1.99365
C         -5.61181       -0.98112        1.72428
C         -4.55010       -0.78925        0.78407
C         -3.21389       -0.82214        1.18540
C         -2.16445       -0.63234        0.28313
C         -0.80203       -0.66755        0.69900
C          0.20814       -0.47851       -0.20239
C          1.65064       -0.47769        0.02358
C          2.34362       -0.67060        1.21986
C          3.73131       -0.63217        1.22647
C          2.37440       -0.24713       -1.15699
C          3.76549       -0.20717       -1.15855
C          4.43736       -0.40158        0.04274
C         -0.11139       -0.24168       -1.58420
S          1.33785       -0.02541       -2.56857
C         -1.39902       -0.19934       -2.02749
C         -2.46922       -0.39458       -1.10245
H         -4.03448       -0.18122       -2.55415
H         -6.44600       -0.32320       -2.08300
H         -9.90791       -2.56001       -1.64247
H         -8.44041       -1.95211       -2.45325
H        -10.05055       -1.40156       -2.99978
H        -11.41175       -0.00938        0.41296
H        -12.23503       -1.05320        1.61424
H        -11.44407       -1.78058        0.18649
H         -5.40036       -1.15049        2.77473
H         -2.98251       -1.00048        2.23333
H         -0.58127       -0.84774        1.74824
H          1.79765       -0.84997        2.14173
H          4.27074       -0.78201        2.15641
H          4.31553       -0.02803       -2.07706
H          5.52261       -0.37324        0.05815
H         -1.63169       -0.01952       -3.07328
