47
anti_S_NPh_C_diCF3.log	Energy: -1286351.1892002
C          1.39728       -0.32224       -1.43712
C          2.48721        0.48433       -0.97589
C          3.68818        0.49071       -1.65428
C          4.69514        1.35507       -1.15718
C          5.84698        2.01906       -1.41612
C          6.89809        1.90917       -2.44785
F          6.52279        1.04772       -3.40881
F          7.14824        3.09463       -3.03452
F          8.07172        1.48102       -1.94590
C          5.81039        2.72250       -0.04593
C          6.08857        4.16700        0.22244
F          5.59408        4.93462       -0.75609
F          5.54843        4.56752        1.37875
F          7.41330        4.38578        0.28587
C          4.55473        1.96334        0.21980
N          5.75917        1.78535        1.04960
C          6.49525        0.57197        1.06396
C          5.83416       -0.64745        1.18533
C          6.57277       -1.82360        1.25866
C          7.96360       -1.78569        1.20907
C          8.61513       -0.56096        1.08427
C          7.88617        0.62026        1.01467
C          3.22223        2.10143        0.78493
C          2.23875        1.34079        0.22117
C          0.91638        1.33312        0.79298
C         -0.09472        0.55735        0.30465
C         -1.40617        0.55926        0.90321
C         -2.39408       -0.22802        0.40569
C         -3.76603       -0.37250        0.85627
C         -4.47066       -1.24966        0.12241
C         -2.12716       -1.08366       -0.74432
S         -3.56656       -1.99695       -1.18760
C         -0.91671       -1.12875       -1.34943
C          0.15914       -0.30827       -0.85230
H          1.57160       -0.96038       -2.29966
H          3.82322       -0.09366       -2.55814
H          4.74826       -0.66898        1.21526
H          6.05591       -2.77434        1.34872
H          8.53691       -2.70586        1.26184
H          9.69906       -0.52267        1.03477
H          8.38205        1.58018        0.90966
H          3.05083        2.70163        1.67240
H          0.73832        1.96755        1.65785
H         -1.58671        1.20298        1.75988
H         -4.17371        0.17393        1.69846
H         -5.50769       -1.52737        0.26021
H         -0.73087       -1.76973       -2.20604
