48
anti_S_S_p-CF3benz_m-CF3benz.log	Energy: -1549427.9093480
C         -3.56359        0.55487       -1.13779
C         -4.58580       -0.04923       -0.40164
C         -5.95535        0.28145       -0.61355
C         -6.93839       -0.32316        0.11900
C         -8.38237       -0.12434        0.05153
C         -9.10457        0.73569       -0.77803
C        -10.48602        0.78151       -0.68783
C         -9.07265       -0.93201        0.96835
C        -10.45916       -0.89476        1.06750
C        -11.15665       -0.03144        0.23206
C        -12.66095        0.00240        0.27029
F        -13.19265       -0.69500       -0.74945
F        -13.15088       -0.51984        1.40578
F        -13.12838        1.25839        0.16787
C         -6.58657       -1.30109        1.11248
S         -8.00646       -1.94938        1.93522
C         -5.29072       -1.64903        1.34941
C         -4.24812       -1.03047        0.59580
C         -2.90554       -1.35282        0.80085
C         -1.88351       -0.74895        0.06462
C         -0.51381       -1.08043        0.27623
C          0.46895       -0.47640       -0.45659
C          1.91328       -0.67500       -0.39144
C          2.63055       -1.53521        0.43853
C          4.01373       -1.58039        0.34235
C          4.81347       -2.46632        1.25701
F          4.05234       -3.39759        1.85463
F          5.78975       -3.10859        0.59210
F          5.41089       -1.75711        2.23179
C          2.60442        0.13139       -1.30882
C          3.99340        0.08878       -1.40745
C          4.69297       -0.77204       -0.57617
C          0.11690        0.50199       -1.44927
S          1.53837        1.14919       -2.27210
C         -1.17835        0.85097       -1.68633
C         -2.22126        0.23248       -0.93266
H         -3.82126        1.29610       -1.89088
H         -6.20268        1.02308       -1.36877
H         -8.58676        1.37012       -1.49087
H        -11.05191        1.45156       -1.32581
H        -10.98780       -1.51802        1.77976
H         -5.03143       -2.38882        2.10117
H         -2.64782       -2.09405        1.55386
H         -0.26651       -1.82241        1.03111
H          2.11405       -2.16852        1.15161
H          4.52133        0.71268       -2.12099
H          5.77471       -0.82404       -0.64099
H         -1.43724        1.59108       -2.43794
