40
anti_O_O_C_m-OMebenz.log	Energy: -696648.8600036
C         -2.96326       -1.73882       -0.03454
C         -1.87652       -0.86687        0.03250
C         -0.53365       -1.34009       -0.10261
C          0.50046       -0.45391       -0.03118
C          1.94871       -0.54028       -0.11773
C          2.87881       -1.56328       -0.30924
C          4.22682       -1.25217       -0.33517
C          2.41375        0.76550        0.04160
C          3.75445        1.11728        0.02175
C          4.66484        0.07583       -0.17154
O          6.00747        0.24770       -0.21711
C          6.51627        1.55370       -0.06013
C          0.22964        0.93845        0.17820
O          1.39623        1.66323        0.22003
C         -1.01660        1.45060        0.31394
C         -2.12094        0.54075        0.24266
C         -3.43553        0.98297        0.37179
C         -4.52883        0.11010        0.30484
C         -5.86525        0.58634        0.43968
C         -6.90395       -0.30319        0.36752
C         -8.34803       -0.21877        0.45260
C         -8.80028       -1.47696        0.29868
C         -6.63050       -1.68970        0.15883
O         -7.80241       -2.39396        0.11931
C         -5.38140       -2.20659        0.02276
C         -4.28386       -1.29712        0.09471
H         -2.77756       -2.79894       -0.19290
H         -0.35882       -2.40082       -0.26051
H          2.55421       -2.59141       -0.43667
H          4.97868       -2.01954       -0.48165
H          4.05155        2.14982        0.15129
H          7.60072        1.46390       -0.12992
H          6.24941        1.97347        0.91814
H          6.15606        2.22258       -0.85215
H         -1.18347        2.51086        0.47128
H         -3.62115        2.04309        0.53010
H         -6.03915        1.64703        0.59749
H         -8.94816        0.66566        0.60733
H         -9.79856       -1.88886        0.29138
H         -5.21489       -3.26694       -0.13467
