36
anti_C_C_diF_diCl.log	Energy: -1232470.7801976
C         -2.62913        0.64601       -0.70494
C         -3.74012        0.26143        0.04966
C         -5.04669        0.69956       -0.27470
C         -6.14441        0.32020        0.46998
C         -7.49389        0.75020        0.16525
Cl        -7.74939        1.79273       -1.20134
C         -8.54221        0.34542        0.93462
Cl       -10.17483        0.83728        0.60489
C         -5.95451       -0.54908        1.61384
C         -7.09890       -0.94208        2.38725
C         -8.34118       -0.51519        2.06461
C         -4.68624       -0.98291        1.94027
C         -3.55010       -0.60451        1.18849
C         -2.26267       -1.03936        1.51192
C         -1.14975       -0.65533        0.75744
C          0.15686       -1.09113        1.07807
C          1.24222       -0.70076        0.32116
C          2.57440       -1.13080        0.62886
F          2.75352       -1.93432        1.68405
C          3.63122       -0.73906       -0.12322
F          4.86716       -1.15016        0.17913
C          1.06296        0.16765       -0.82262
C          2.21773        0.55404       -1.58811
C          3.45716        0.11693       -1.25105
C         -0.20977        0.59724       -1.14215
C         -1.33931        0.21211       -0.38316
H         -2.77091        1.29861       -1.56317
H         -5.17235        1.34986       -1.13340
H         -6.94908       -1.59352        3.24306
H         -9.20806       -0.80903        2.64525
H         -4.55325       -1.63497        2.80026
H         -2.12178       -1.69177        2.37040
H          0.30347       -1.74243        1.93355
H          2.07933        1.20560       -2.44535
H          4.33997        0.39699       -1.81522
H         -0.35292        1.24998       -2.00003
