52
anti_C_NPh_diCN_tetClbenz.log	Energy: -2027944.1070783
C         -2.64936       -1.90530        0.00467
C         -1.63232       -0.95758       -0.00529
C         -0.26971       -1.34688       -0.19635
C          0.71099       -0.39725       -0.20263
C          2.15870       -0.42348       -0.36340
C          3.07078       -1.45199       -0.57188
Cl         2.51411       -3.08955       -0.68236
C          4.43281       -1.16607       -0.69130
Cl         5.57090       -2.44358       -0.94906
C          2.61152        0.91391       -0.27176
C          3.96989        1.21541       -0.39280
Cl         4.54510        2.84717       -0.29388
C          4.87232        0.16526       -0.60156
Cl         6.55854        0.51385       -0.75263
C          0.36329        0.98734       -0.01743
N          1.52500        1.75176       -0.06450
C          1.48920        3.16912        0.11311
C          1.59050        3.70265        1.39444
C          1.51716        5.08040        1.56861
C          1.33107        5.91336        0.46794
C          1.21153        5.37017       -0.80898
C          1.28509        3.99315       -0.98948
C         -0.91634        1.41365        0.16996
C         -1.96094        0.44038        0.18071
C         -3.29103        0.80144        0.36541
C         -4.32105       -0.15256        0.37589
C         -5.66990        0.21365        0.56276
C         -6.67743       -0.73463        0.57113
C         -8.06541       -0.38242        0.76059
C         -8.40871        0.99670        0.94620
N         -8.64476        2.12205        1.09280
C         -9.04254       -1.35098        0.76331
C        -10.42149       -1.00311        0.95128
N        -11.54434       -0.75829        1.10019
C         -6.35193       -2.12836        0.38594
C         -7.40977       -3.09615        0.39759
C         -8.70421       -2.73166        0.57808
C         -5.03095       -2.49697        0.20199
C         -3.99299       -1.54380        0.19068
H         -2.39918       -2.95431       -0.13528
H         -0.04306       -2.39701       -0.33303
H          1.73721        3.03680        2.23893
H          1.60589        5.50338        2.56419
H          1.27543        6.98865        0.60615
H          1.06222        6.01898       -1.66613
H          1.19786        3.55044       -1.97660
H         -1.14970        2.46418        0.30841
H         -3.54331        1.84957        0.50552
H         -5.91412        1.26326        0.70212
H         -7.15410       -4.14247        0.25729
H         -9.50097       -3.46645        0.58618
H         -4.78479       -3.54688        0.06236
