56
anti_O_NPh_m-CF3benz_tetClbenz.log	Energy: -2218669.6880477
C         -3.60993        0.96009        0.12191
C         -4.65873        0.03582        0.07892
C         -6.01626        0.46519        0.13631
C         -7.02339       -0.46077        0.09206
C         -8.47767       -0.39207        0.12221
C         -9.37651        0.66541        0.21065
Cl        -8.78642        2.29238        0.31080
C        -10.75105        0.41819        0.21776
Cl       -11.87162        1.73314        0.32433
C         -8.95903       -1.72093        0.03981
C        -10.33125       -1.98316        0.05246
Cl       -10.94081       -3.60429       -0.02976
C        -11.21875       -0.90436        0.13942
Cl       -12.92170       -1.20496        0.15264
C         -6.70002       -1.85485       -0.01009
N         -7.88301       -2.59154       -0.03683
C         -7.87067       -4.01198       -0.18336
C         -7.76435       -4.81729        0.94659
C         -7.71382       -6.19937        0.79925
C         -7.75976       -6.76732       -0.47159
C         -7.84811       -5.95393       -1.59881
C         -7.89683       -4.57141       -1.45750
C         -5.41825       -2.31704       -0.07038
C         -4.35555       -1.36890       -0.02608
C         -3.01644       -1.76342       -0.08171
C         -1.96886       -0.84106       -0.03862
C         -0.60576       -1.26479       -0.09645
C          0.38691       -0.33009       -0.05137
C          1.84067       -0.36759       -0.08424
C          2.79959       -1.37305       -0.17098
C          4.14160       -1.01548       -0.17007
C          2.24950        0.96810        0.00096
C          3.57786        1.35186        0.00412
C          4.51994        0.32982       -0.08322
C          5.98487        0.67334       -0.14211
F          6.72658       -0.20050        0.55968
F          6.44402        0.64689       -1.40614
F          6.23670        1.89881        0.34464
C          0.05831        1.05946        0.05287
O          1.19344        1.83189        0.08388
C         -1.21249        1.52622        0.11161
C         -2.27346        0.56673        0.06642
H         -3.84574        2.01882        0.20099
H         -6.22533        1.52512        0.21324
H         -7.73454       -4.35511        1.92813
H         -7.64140       -6.83281        1.67769
H         -7.72365       -7.84653       -0.58401
H         -7.87987       -6.39604       -2.58958
H         -7.96725       -3.92045       -2.32315
H         -5.20135       -3.37742       -0.15008
H         -2.78233       -2.82263       -0.16098
H         -0.38115       -2.32485       -0.17551
H          2.50771       -2.41636       -0.23476
H          4.90703       -1.78114       -0.23085
H          3.86576        2.39334        0.07554
H         -1.42805        2.58628        0.19032
