43
anti_O_O_2-OMe_m-CF3benz.log	Energy: -908093.1114723
C         -2.92610       -1.73890        0.09306
C         -1.84091       -0.85821        0.08245
C         -0.49803       -1.33655        0.01345
C          0.53142       -0.44034        0.00589
C          1.98170       -0.53388       -0.05371
C          2.90187       -1.57598       -0.12313
C          4.25617       -1.26872       -0.16082
C          2.44125        0.78809       -0.02376
C          3.78222        1.12197       -0.05965
C          4.68528        0.06337       -0.12888
C          6.15894        0.35295       -0.23089
F          6.88967       -0.54130        0.45695
F          6.58271        0.30233       -1.50689
F          6.46796        1.57250        0.23877
C          0.25587        0.96228        0.06701
O          1.41963        1.69277        0.04886
C         -0.99552        1.47939        0.13342
C         -2.09314        0.56135        0.14290
C         -3.41351        1.00795        0.20982
C         -4.50123        0.12905        0.22052
C         -5.84358        0.61059        0.28937
C         -6.88108       -0.28251        0.29769
C         -8.32058       -0.19481        0.35616
C         -8.76055       -1.47441        0.32775
O        -10.00320       -1.92983        0.35942
C        -10.19810       -3.34160        0.31742
C         -6.58785       -1.68275        0.23683
O         -7.76175       -2.40076        0.25664
C         -5.34283       -2.20877        0.17005
C         -4.24509       -1.29074        0.16012
H         -2.73468       -2.80890        0.04759
H         -0.31586       -2.40686       -0.03199
H          2.57126       -2.60949       -0.14411
H          4.99151       -2.06415       -0.20903
H          4.10894        2.15407       -0.03035
H         -1.16860        2.54921        0.17833
H         -3.60432        2.07776        0.25523
H         -6.02149        1.68100        0.33409
H         -8.93888        0.68688        0.41113
H        -11.27755       -3.48258        0.35491
H         -9.72671       -3.82732        1.17614
H         -9.79686       -3.76448       -0.60764
H         -5.17245       -3.27924        0.12551
