34
anti_S_S_3-CF3_3-CN.log	Energy: -1203072.0112047
C         -0.28575        1.34854       -0.37078
C         -1.30918        0.53246        0.11761
C         -2.67930        0.83842       -0.11484
C         -3.65596        0.01714        0.37889
C         -5.10175        0.13915        0.26144
C         -5.73532        1.21029       -0.43558
N         -6.21673        2.09533       -1.00986
C         -5.77167       -0.86392        0.87971
C         -3.30366       -1.15353        1.13125
S         -4.74171       -2.03097        1.64784
C         -2.00373       -1.48466        1.37745
C         -0.96552       -0.64615        0.87464
C          0.38062       -0.94015        1.09891
C          1.40413       -0.12389        0.61063
C          2.77348       -0.43064        0.84452
C          3.75562        0.38890        0.35415
C          5.19851        0.27247        0.47081
C          5.86834       -0.84651        1.19791
F          5.48665       -0.89157        2.48765
F          5.55005       -2.03952        0.66265
F          7.20381       -0.73350        1.17318
C          5.86424        1.27109       -0.14135
C          3.39914        1.56086       -0.39837
S          4.83363        2.44239       -0.91370
C          2.09952        1.89200       -0.64627
C          1.06026        1.05428       -0.14578
H         -0.54637        2.23684       -0.94122
H         -2.94251        1.72555       -0.68483
H         -6.84622       -0.98262        0.92563
H         -1.74094       -2.37114        1.94708
H          0.64154       -1.82834        1.66948
H          3.02746       -1.31868        1.41455
H          6.93819        1.39222       -0.18594
H          1.83820        2.77906       -1.21570
