40
anti_C_C_3-OMe_diF.log	Energy: -727460.9297621
C         -2.95004        0.71172       -0.01408
C         -3.97212       -0.17839       -0.03271
C         -7.48840       -1.52417        0.04375
C         -7.99347       -0.92726        1.10219
C         -7.73845       -0.00216        2.00583
F         -7.98260       -0.14054        3.31432
C         -6.99276        1.18782        1.60657
F         -7.28841        2.32017        2.26828
C         -6.01585       -1.37422       -0.02825
C         -5.47115        0.05222       -0.15212
C         -6.01134        1.18357        0.69843
C         -5.02131       -2.27352        0.01503
C         -3.72726       -1.59321        0.02559
C         -2.45719       -2.08283        0.08822
C         -1.35065       -1.17610        0.11395
C         -0.03249       -1.63355        0.18787
C          1.04353       -0.74830        0.21908
C          2.40640       -1.21270        0.29587
O          2.53655       -2.56059        0.33339
C          3.83784       -3.09604        0.41200
C          3.44553       -0.32286        0.32560
C          0.80380        0.66283        0.17502
C          1.91547        1.56232        0.20787
C          3.18469        1.07761        0.28060
C         -0.51494        1.11689        0.10075
C         -1.59773        0.23827        0.06773
H         -3.12419        1.78456       -0.05604
H         -8.07086       -1.95070       -0.76929
H         -5.66385        0.37006       -1.19331
H         -5.54619        2.14798        0.50578
H         -5.14777       -3.34937        0.06146
H         -2.26470       -3.15203        0.12517
H          0.15991       -2.70072        0.22334
H          3.71773       -4.17967        0.43299
H          4.34938       -2.76793        1.32573
H          4.43912       -2.81255       -0.46114
H          4.47343       -0.66051        0.38337
H          1.72657        2.63138        0.17461
H          4.02853        1.76070        0.30606
H         -0.70115        2.18825        0.06718
