57
anti_O_NPh_p-CNbenz_m-CF3benz.log	Energy: -1122981.5576223
C         -3.09827       -2.16139       -1.23791
C         -4.09349       -1.27857       -0.80815
C         -5.47137       -1.52544       -1.07700
C         -6.41563       -0.64197       -0.63976
C         -7.86364       -0.59329       -0.75567
C         -8.80308       -1.44023       -1.33500
C        -10.14926       -1.11085       -1.25635
C         -8.28449        0.58198       -0.10412
C         -9.62982        0.91889       -0.00688
C        -10.54898        0.05616       -0.59458
C        -12.01119        0.41219       -0.57261
F        -12.78691       -0.67519       -0.42481
F        -12.31216        1.25961        0.42552
F        -12.38920        1.00651       -1.71988
C         -6.02689        0.53378        0.09403
N         -7.17788        1.25593        0.40564
C         -7.21438        2.47773        1.12316
C         -7.79424        3.60697        0.54534
C         -7.84069        4.79994        1.25891
C         -7.29007        4.87515        2.53551
C         -6.70084        3.74861        3.10380
C         -6.67075        2.54612        2.40592
C         -4.72005        0.81951        0.36592
C         -3.71719       -0.09068       -0.08189
C         -2.36143        0.13927        0.16578
C         -1.36685       -0.74163       -0.26420
C          0.01357       -0.48582        0.00052
C          0.95252       -1.37320       -0.43695
C          2.40338       -1.46055       -0.36616
C          3.40630       -0.67127        0.17684
C          4.73192       -1.09812        0.03965
C          5.79239       -0.30248        0.59102
N          6.64796        0.34076        1.03654
C          2.73973       -2.64953       -1.02946
C          4.04512       -3.09022       -1.17634
C          5.04359       -2.29469       -0.63005
C          0.55063       -2.54488       -1.15235
O          1.64406       -3.30507       -1.50262
C         -0.73918       -2.84596       -1.43621
C         -1.74554       -1.93151       -0.98890
H         -3.38934       -3.05542       -1.78476
H         -5.75191       -2.41581       -1.63356
H         -8.48989       -2.35037       -1.83731
H        -10.89682       -1.75983       -1.69834
H         -9.95502        1.81205        0.51332
H         -8.19926        3.54423       -0.46004
H         -8.29744        5.67605        0.80926
H         -7.32042        5.80973        3.08677
H         -6.27484        3.80062        4.10099
H         -6.23467        1.65577        2.84816
H         -4.43154        1.71630        0.90492
H         -2.07065        1.03424        0.71131
H          0.29339        0.41127        0.54579
H          3.18028        0.25404        0.69591
H          4.27104       -4.01440       -1.69499
H          6.08209       -2.59482       -0.71759
H         -1.00952       -3.74366       -1.98159
