51
anti_O_NPh_m-OMebenz_3-F.log	Energy: -891379.8910735
C         -2.55762       -2.02926        0.82324
C         -3.77034       -1.41699        0.47422
C         -5.01469       -2.06891        0.67555
C         -6.17268       -1.42976        0.31589
C         -7.56463       -1.77073        0.40354
F         -8.02899       -2.92718        0.88203
C         -8.30384       -0.75111       -0.08599
C         -6.14006       -0.11607       -0.26903
N         -7.45408        0.26996       -0.51438
C         -7.89239        1.49868       -1.05431
C         -7.29117        2.01861       -2.20233
C         -7.73423        3.22788       -2.72635
C         -8.78980        3.91171       -2.12899
C         -9.39759        3.38193       -0.99413
C         -8.94602        2.18541       -0.44866
C         -4.96019        0.55417       -0.45758
C         -3.74603       -0.08916       -0.09142
C         -2.50707        0.54186       -0.26745
C         -1.30458       -0.06856        0.08102
C         -0.05046        0.59472       -0.10901
C          1.10388       -0.03802        0.24444
C          2.51939        0.29017        0.20822
C          3.28017        1.38565       -0.20274
C          4.65759        1.33380       -0.08030
C          3.17777       -0.82378        0.73043
C          4.55405       -0.91396        0.86931
C          5.29275        0.19527        0.45085
O          6.64350        0.26951        0.51778
C          7.34506       -0.83700        1.03976
C          1.04961       -1.35888        0.80227
O          2.31182       -1.82011        1.09107
C         -0.10071       -2.04157        1.00812
C         -1.33031       -1.39968        0.64488
H         -2.58098       -3.03005        1.24888
H         -5.04113       -3.05977        1.11916
H         -9.37330       -0.66602       -0.20557
H         -6.49526        1.46371       -2.68818
H         -7.26157        3.62748       -3.61846
H         -9.13772        4.85122       -2.54656
H        -10.21862        3.90971       -0.51850
H         -9.39507        1.78709        0.45615
H         -4.93166        1.55918       -0.86577
H         -2.48448        1.54347       -0.69171
H         -0.03928        1.59500       -0.53328
H          2.80254        2.26965       -0.61398
H          5.28165        2.16507       -0.38875
H          5.00505       -1.80671        1.28251
H          8.40114       -0.56820        1.00167
H          7.17832       -1.73868        0.43673
H          7.05951       -1.03880        2.08005
H         -0.10372       -3.03985        1.43257
