49
anti_O_NPh_diOMe_diCl.log	Energy: -1381358.3925713
C          0.04822        0.25600       -1.71933
C         -1.25765        0.14010       -1.22405
C         -2.38687        0.28290       -2.07426
C         -3.64517        0.16561       -1.54535
C         -4.97016        0.24396       -2.10260
Cl        -5.35056        0.55655       -3.75008
C         -5.85290        0.03887       -1.09008
Cl        -7.56110        0.06157       -1.16385
C         -3.82043       -0.09728       -0.14497
N         -5.18784       -0.17335        0.11104
C         -5.76690       -0.40843        1.38747
C         -6.52144       -1.55734        1.61476
C         -7.07319       -1.77738        2.87220
C         -6.85318       -0.86752        3.90306
C         -6.08610        0.27185        3.67368
C         -5.54835        0.50950        2.41345
C         -2.76353       -0.25253        0.70820
C         -1.44742       -0.13311        0.18083
C         -0.31948       -0.27605        0.99802
C          0.97943       -0.16290        0.50383
C          2.11756       -0.31376        1.35653
C          3.36931       -0.19753        0.82179
C          4.72037       -0.27806        1.33252
O          5.08251       -0.51600        2.62780
C          4.91792       -1.87279        3.01246
C          5.53960       -0.04864        0.26963
O          6.84938        0.02501        0.08909
C          7.66802       -0.16795        1.23732
C          3.52440        0.08654       -0.57028
O          4.85765        0.18209       -0.88490
C          2.49315        0.24276       -1.43190
C          1.16702        0.11470       -0.90352
H          0.18973        0.46375       -2.77768
H         -2.24543        0.48055       -3.13294
H         -6.66881       -2.26892        0.80887
H         -7.66722       -2.66857        3.04878
H         -7.27891       -1.04680        4.88544
H         -5.91462        0.98491        4.47400
H         -4.96155        1.40067        2.21408
H         -2.91025       -0.46306        1.76300
H         -0.46224       -0.48302        2.05651
H          1.97151       -0.50730        2.41530
H          3.88553       -2.20910        2.85956
H          5.16703       -1.92927        4.07380
H          5.58937       -2.52695        2.44007
H          8.69058       -0.02013        0.89126
H          7.55315       -1.18292        1.63095
H          7.42246        0.55547        2.01848
H          2.65326        0.46046       -2.48252
