49
anti_S_NPh_p-CNbenz_3-CN.log	Energy: -1075688.8730891
C         -3.05002       -2.10529        1.77791
C         -4.09629       -1.37772        1.19521
C         -5.45191       -1.62566        1.54322
C         -6.44167       -0.89223        0.94630
C         -7.88544       -0.87011        1.07920
C         -8.66863       -1.69796        1.92286
N         -9.28694       -2.38696        2.62302
C         -8.35097        0.09352        0.22913
C         -6.11577        0.11169       -0.02540
N         -7.31637        0.68969       -0.44504
C         -7.46247        1.73069       -1.39932
C         -6.86606        1.61177       -2.65424
C         -7.01847        2.63403       -3.58422
C         -7.77767        3.75961       -3.27397
C         -8.37993        3.86599       -2.02350
C         -8.21573        2.85852       -1.07866
C         -4.82687        0.39790       -0.37922
C         -3.78148       -0.35174        0.22853
C         -2.43899       -0.11560       -0.09165
C         -1.40298       -0.84181        0.49182
C         -0.03727       -0.59613        0.15977
C          0.96100       -1.32167        0.74391
C          2.40351       -1.22466        0.54098
C          3.10025       -0.36419       -0.30111
C          4.49338       -0.43147       -0.35064
C          5.21629        0.45482       -1.21893
N          5.79823        1.17100       -1.92066
C          3.11690       -2.14668        1.32707
C          4.50753       -2.21777        1.28147
C          5.19376       -1.35684        0.43967
C          0.63275       -2.34277        1.70298
S          2.07524       -3.15028        2.32690
C         -0.65417       -2.61367        2.05223
C         -1.71708       -1.86747        1.45416
H         -3.28978       -2.87755        2.50509
H         -5.69043       -2.38634        2.28113
H         -9.37111        0.39238        0.03216
H         -6.30205        0.71733       -2.89869
H         -6.55392        2.54203       -4.56094
H         -7.89982        4.55180       -4.00567
H         -8.96895        4.74289       -1.77407
H         -8.65544        2.94815       -0.08987
H         -4.58769        1.17687       -1.09594
H         -2.19888        0.65788       -0.81777
H          0.19124        0.17955       -0.56680
H          2.57359        0.35668       -0.91806
H          5.04899       -2.93263        1.89197
H          6.27639       -1.39293        0.38641
H         -0.89473       -3.38584        2.77718
