46
anti_S_O_p-CNbenz_m-CF3benz.log	Energy: -1193172.2877669
C         -3.51393        0.21926       -1.51625
C         -4.58868       -0.11438       -0.68802
C         -5.93434        0.17159       -1.07099
C         -6.95413       -0.17120       -0.23199
C         -8.40323       -0.05119       -0.26679
C         -9.32874        0.46539       -1.16943
C        -10.67807        0.40483       -0.84674
C         -8.85177       -0.61370        0.93321
C        -10.18817       -0.68661        1.27984
C        -11.09648       -0.16413        0.36243
C        -12.57293       -0.26004        0.64414
F        -13.12670       -1.30361        0.00170
F        -12.82755       -0.42017        1.95242
F        -13.22684        0.84072        0.23648
C         -6.66891       -0.81012        1.01691
O         -7.82331       -1.07088        1.71028
C         -5.41518       -1.10869        1.43762
C         -4.32747       -0.75998        0.57673
C         -3.00553       -1.03131        0.93284
C         -1.93294       -0.69667        0.10265
C         -0.58600       -0.97711        0.47331
C          0.44703       -0.64031       -0.35573
C          1.87993       -0.83977       -0.16109
C          2.53073       -1.42358        0.92114
C          3.92276       -1.51990        0.91328
C          4.59921       -2.12194        2.02783
N          5.14427       -2.60821        2.92803
C          2.63788       -0.35778       -1.24264
C          4.02790       -0.45144       -1.25543
C          4.66796       -1.03436       -0.17338
C          0.17213        0.00205       -1.61140
S          1.64970        0.34481       -2.51628
C         -1.09881        0.28986       -2.00775
C         -2.19320       -0.05329       -1.15742
H         -3.71374        0.70547       -2.46843
H         -6.12474        0.65720       -2.02399
H         -9.00561        0.90978       -2.10531
H        -11.41779        0.80564       -1.53076
H        -10.50675       -1.12366        2.21808
H         -5.23393       -1.59400        2.39046
H         -2.80469       -1.51769        1.88453
H         -0.39744       -1.46352        1.42695
H          1.96926       -1.80371        1.76842
H          4.60401       -0.07655       -2.09474
H          5.74909       -1.11911       -0.15939
H         -1.29994        0.77558       -2.95820
