45
anti_C_C_2-CF3_benz.log	Energy: -839014.9205071
C         -2.27585        1.36040        0.66245
C         -3.49706        0.69113        0.67784
C         -4.72827        1.37885        0.86509
C         -5.93934        0.73140        0.88266
C         -7.21965        1.43157        1.07622
C         -7.30347        2.82171        1.25991
C         -8.52130        3.45304        1.43981
C         -8.42014        0.68594        1.07974
C         -9.64842        1.34150        1.26349
C         -9.70566        2.71028        1.44217
C         -5.95476       -0.70730        0.70216
C         -7.22151       -1.40705        0.71683
C         -8.38184       -0.75066        0.89448
C         -4.77899       -1.39399        0.51968
C         -3.51962       -0.73860        0.49970
C         -2.32159       -1.42406        0.31586
C         -1.08929       -0.75507        0.29974
C          0.13240       -1.43851        0.11446
C          1.34181       -0.76858        0.10044
C          2.58611       -1.45985       -0.08759
C          3.76071       -0.78083       -0.09763
C          5.06970       -1.48894       -0.29309
F          4.92477       -2.81347       -0.44921
F          5.71747       -1.02432       -1.37793
F          5.89012       -1.29473        0.75641
C          1.36667        0.66425        0.27859
C          2.63936        1.33349        0.25942
C          3.79214        0.64411        0.07912
C          0.17848        1.34636        0.46089
C         -1.06531        0.67715        0.47790
H         -2.25775        2.43967        0.79680
H         -4.67242        2.45473        0.99594
H         -6.40331        3.42665        1.26350
H         -8.55318        4.52932        1.57942
H        -10.56153        0.75162        1.26326
H        -10.66189        3.20459        1.58326
H         -7.20893       -2.48490        0.57929
H         -9.32522       -1.29024        0.90304
H         -4.80667       -2.47311        0.38570
H         -2.34015       -2.50323        0.18150
H          0.11574       -2.51770       -0.01997
H          2.57008       -2.53654       -0.22176
H          2.65840        2.41148        0.39348
H          4.74829        1.15693        0.06600
H          0.19541        2.42558        0.59523
