48
anti_C_S_diCF3_p-CF3benz.log	Energy: -1463182.3982028
C         -2.38173       -1.97258        0.28262
C         -1.48398       -0.91748        0.19173
C         -0.08890       -1.13789       -0.03116
C          0.77498       -0.08704       -0.11873
C          2.21791       -0.10350       -0.33996
C          3.05146       -1.20673       -0.51477
C          4.40973       -1.01009       -0.71825
C          5.33713       -2.18480       -0.86442
F          4.67473       -3.32476       -1.12054
F          6.21814       -1.99632       -1.86223
F          6.05630       -2.38644        0.25438
C          2.76786        1.18698       -0.37113
C          4.13096        1.38798       -0.57497
C          4.94775        0.28115       -0.74825
C          0.27845        1.26082        0.01453
S          1.56902        2.45594       -0.13404
C         -1.03775        1.52374        0.22817
C         -1.96783        0.43888        0.32450
C         -3.32078        0.65870        0.54153
C         -4.23554       -0.40595        0.63517
C         -5.60753       -0.17572        0.85585
C         -6.52533       -1.21573        0.94901
C         -7.95057       -1.01602        1.17550
C         -8.39398        0.42914        1.34147
F         -8.10511        1.14086        0.23420
F         -9.69053        0.60511        1.57976
F         -7.73671        1.00501        2.36754
C         -8.79602       -2.09634        1.22954
C        -10.30573       -2.01225        1.43716
F        -10.62661       -1.48968        2.62736
F        -10.90882       -1.30048        0.47657
F        -10.86461       -3.23672        1.40228
C         -6.03061       -2.56448        0.80684
C         -6.95715       -3.64766        0.88657
C         -8.27705       -3.42512        1.08348
C         -4.68290       -2.80275        0.59265
C         -3.75278       -1.75335        0.50123
H         -2.01921       -2.99293        0.18211
H          0.26717       -2.16011       -0.12939
H          2.64471       -2.21199       -0.49666
H          4.54960        2.38850       -0.60120
H          6.01146        0.41659       -0.91330
H         -1.40457        2.54106        0.32783
H         -3.68678        1.67764        0.64227
H         -5.92101        0.85480        0.94833
H         -6.58351       -4.66221        0.78158
H         -8.96359       -4.25840        1.13500
H         -4.33727       -3.82857        0.48986
