44
anti_C_O_p-CNbenz_3-OMe.log	Energy: -755888.0571884
C         -2.62713        0.33476       -0.20006
C         -3.68686       -0.38045        0.36109
C         -5.03470        0.06955        0.22953
C         -6.03242       -0.66865        0.79830
C         -7.47261       -0.54713        0.88118
O         -8.14029        0.47599        0.31825
C         -9.54134        0.43814        0.49627
C         -7.91270       -1.61034        1.59112
C         -5.73406       -1.86881        1.51191
O         -6.87767       -2.43289        1.98874
C         -4.47274       -2.34808        1.67110
C         -3.40347       -1.60060        1.08853
C         -2.07842       -2.02375        1.20569
C         -1.02078       -1.30400        0.64186
C          0.32664       -1.73413        0.76090
C          1.37365       -1.03252        0.20974
C          2.77566       -1.46237        0.32276
C          3.15129       -2.62703        1.00520
C          4.48466       -3.00901        1.09613
C          4.83071       -4.20974        1.80420
N          5.11097       -5.17886        2.37553
C          3.79277       -0.68098       -0.27459
C          5.13628       -1.08294       -0.17233
C          5.49170       -2.23042        0.50169
C          1.08328        0.18456       -0.51471
C          2.17107        0.93509       -1.10086
C          3.44956        0.52907       -0.98903
C         -0.21612        0.61927       -0.64199
C         -1.30270       -0.09411       -0.07911
H         -2.83936        1.25107       -0.74635
H         -5.25063        0.98349       -0.31504
H         -9.94383        1.31770       -0.00608
H         -9.80021        0.47136        1.56295
H         -9.96723       -0.46981        0.04885
H         -8.89566       -1.93008        1.89822
H         -4.27502       -3.26337        2.21854
H         -1.86357       -2.93971        1.75144
H          0.50097       -2.65264        1.31242
H          2.40752       -3.25701        1.47833
H          5.90340       -0.47019       -0.63735
H          6.52923       -2.53665        0.57809
H          1.92689        1.84620       -1.64053
H          4.25528        1.10485       -1.43567
H         -0.42036        1.53664       -1.18974
