60
anti_C_NPh_diOMe_diOMe.log	Energy: -949645.0079200
C         -2.61924       -1.15604        2.64345
C         -3.56693       -0.33692        2.03716
C         -4.86632       -0.15100        2.60007
C         -5.77004        0.65506        1.96683
C         -7.12143        1.05533        2.27209
O         -7.84108        0.65118        3.36449
C         -8.31793       -0.68073        3.25860
C         -7.51998        1.91654        1.28775
O         -8.64636        2.59125        1.05447
C         -9.72518        2.39412        1.95883
C         -5.40885        1.32961        0.74448
N         -6.49985        2.10478        0.35603
C         -6.58275        2.89690       -0.81617
C         -6.29265        2.32420       -2.05478
C         -6.34294        3.10320       -3.20579
C         -6.70408        4.44530       -3.12875
C         -7.00649        5.00913       -1.89183
C         -6.93626        4.24344       -0.73375
C         -4.17854        1.19920        0.17549
C         -3.21873        0.34753        0.80741
C         -1.94985        0.16500        0.26796
C         -0.99289       -0.66277        0.87695
C          0.29402       -0.84784        0.32923
C          1.22634       -1.66633        0.94141
C          2.53883       -1.86537        0.38107
O          2.83486       -1.21050       -0.78749
C          2.93177       -2.07115       -1.91552
C          3.44820       -2.67006        1.00834
O          4.70281       -2.90322        0.50897
C          5.54098       -1.75760        0.42792
C          0.88489       -2.35082        2.16607
C          1.86791       -3.20348        2.77312
C          3.09691       -3.35173        2.21747
C         -0.37494       -2.17276        2.71047
C         -1.33829       -1.34206        2.10040
H         -2.87783       -1.66874        3.56767
H         -5.11623       -0.64000        3.53757
H         -9.04357       -0.77548        2.43893
H         -8.80475       -0.91638        4.20722
H         -7.49773       -1.38675        3.08229
H        -10.52009        3.05263        1.60846
H         -9.43558        2.65518        2.97920
H        -10.06873        1.35497        1.93306
H         -6.03371        1.27144       -2.10788
H         -6.11133        2.65428       -4.16691
H         -6.74995        5.05004       -4.02918
H         -7.28670        6.05595       -1.82448
H         -7.15515        4.67921        0.23457
H         -3.90915        1.72939       -0.73250
H         -1.68684        0.67990       -0.65363
H          0.56440       -0.33188       -0.58667
H          3.75454       -2.78447       -1.79792
H          3.11996       -1.42801       -2.77739
H          1.99228       -2.61721       -2.06448
H          6.51451       -2.11721        0.08950
H          5.64842       -1.28854        1.41369
H          5.14767       -1.02205       -0.28023
H          1.61024       -3.72436        3.69110
H          3.85316       -3.98867        2.66497
H         -0.63326       -2.68617        3.63430
