36
anti_S_S_diCl_benz.log	Energy: -1606933.1702659
C         -2.82295       -1.75085        0.10638
C         -1.82403       -0.77675        0.10111
C         -0.44575       -1.11846       -0.02937
C          0.51564       -0.14794       -0.03199
C          1.96337       -0.29298       -0.15346
C          2.71035       -1.46345       -0.29624
C          4.09279       -1.38959       -0.39657
C          2.62694        0.94311       -0.11385
C          4.01252        1.02557       -0.21376
C          4.73888       -0.15103       -0.35536
C          0.13156        1.23313        0.09839
S          1.52668        2.31163        0.07045
C         -1.17185        1.60731        0.22540
C         -2.19366        0.60922        0.23066
C         -3.54152        0.94213        0.35817
C         -4.54465       -0.03286        0.36376
C         -5.91789        0.31370        0.49446
C         -6.87531       -0.66456        0.49639
C         -8.31402       -0.53382        0.61668
Cl        -9.08838        0.99660        0.78884
C         -8.96035       -1.71812        0.57982
Cl       -10.65086       -1.97126        0.69154
C         -6.49567       -2.04321        0.36628
S         -7.89866       -3.10676        0.39594
C         -5.19063       -2.41816        0.23886
C         -4.17435       -1.41873        0.23411
H         -2.54206       -2.79706        0.00849
H         -0.17522       -2.16675       -0.12672
H          2.21100       -2.42760       -0.32856
H          4.67508       -2.29874       -0.50757
H          4.51657        1.98630       -0.18200
H          5.82060       -0.10383       -0.43460
H         -1.45418        2.65156        0.32330
H         -3.82266        1.98808        0.45620
H         -6.19977        1.35802        0.59255
H         -4.90863       -3.46249        0.14084
