42
anti_O_O_diCN_m-OMebenz.log	Energy: -812365.1202971
C         -2.82468       -1.86388       -0.17553
C         -1.74943       -1.00190        0.03377
C         -0.42206       -1.36327       -0.35811
C          0.60215       -0.49147       -0.13551
C          2.03357       -0.49110       -0.38034
C          2.95041       -1.38135       -0.94321
C          4.28394       -1.02134       -1.00722
C          2.49732        0.73393        0.09906
C          3.82389        1.13169        0.05344
C          4.72149        0.22389       -0.51420
O          6.04827        0.45380       -0.63623
C          6.55967        1.68208       -0.16508
C          0.33782        0.77467        0.48723
O          1.49121        1.50313        0.62212
C         -0.89340        1.17714        0.88135
C         -1.98751        0.27937        0.65894
C         -3.28516        0.61438        1.03370
C         -4.36856       -0.24987        0.82488
C         -5.68541        0.11660        1.21764
C         -6.70625       -0.76634        0.98988
C         -8.13457       -0.76381        1.23628
C         -8.89759        0.27038        1.83921
N         -9.48790        1.13566        2.33540
C         -8.59595       -1.95819        0.77070
C         -9.91848       -2.48001        0.75975
N        -11.00230       -2.88904        0.75932
C         -6.44750       -2.02190        0.37284
O         -7.61568       -2.73520        0.24798
C         -5.21492       -2.43026       -0.02467
C         -4.13063       -1.53096        0.19981
H         -2.64311       -2.82729       -0.64605
H         -0.25160       -2.32800       -0.82738
H          2.62646       -2.34385       -1.32673
H          5.02588       -1.68493       -1.43676
H          4.12086        2.09657        0.44288
H          7.63161        1.65549       -0.36187
H          6.39118        1.79863        0.91287
H          6.11380        2.53176       -0.69722
H         -1.05600        2.14198        1.34920
H         -3.46726        1.57757        1.50426
H         -5.86624        1.07866        1.68756
H         -5.05340       -3.39512       -0.49231
