50
anti_S_NPh_m-CF3benz_3-F.log	Energy: -1233653.4971557
C         -2.86219       -2.16229        1.40717
C         -3.97002       -1.45029        0.92659
C         -5.29738       -1.86471        1.21252
C         -6.34780       -1.13739        0.71708
C         -7.77464       -1.24859        0.82960
F         -8.40463       -2.21702        1.49716
C         -8.35380       -0.23719        0.14554
C         -6.12120        0.02985       -0.09369
N         -7.36210        0.55323       -0.43678
C         -7.61133        1.70811       -1.21183
C         -6.94779        1.89604       -2.42564
C         -7.20161        3.03503       -3.18157
C         -8.13140        3.97641       -2.74810
C         -8.80335        3.77684       -1.54532
C         -8.53882        2.65287       -0.77055
C         -4.85576        0.47434       -0.37189
C         -3.74990       -0.26342        0.13249
C         -2.43246        0.13777       -0.12469
C         -1.33565       -0.57307        0.35725
C          0.00299       -0.15756        0.09018
C          1.06305       -0.87118        0.57192
C          2.48990       -0.61175        0.40910
C          3.11144        0.43340       -0.27747
C          4.49390        0.50805       -0.31510
C          3.28228       -1.57425        1.05323
C          4.67124       -1.51011        1.02129
C          5.26716       -0.46139        0.33267
C          6.76579       -0.36929        0.23644
F          7.19816       -0.68240       -0.99847
F          7.19898        0.87773        0.49276
F          7.38401       -1.19503        1.09527
C          0.82809       -2.05470        1.35706
S          2.33623       -2.81551        1.87271
C         -0.43000       -2.49036        1.63852
C         -1.55595       -1.75964        1.14558
H         -3.03208       -3.05589        2.00363
H         -5.46954       -2.74446        1.82526
H         -9.39871       -0.01790       -0.01397
H         -6.25284        1.14121       -2.77897
H         -6.68158        3.17674       -4.12406
H         -8.33273        4.85996       -3.34546
H         -9.52727        4.50728       -1.19732
H         -9.03584        2.51065        0.18432
H         -4.68010        1.37311       -0.95393
H         -2.26188        1.03231       -0.71983
H          0.16181        0.73860       -0.50449
H          2.51387        1.18847       -0.77909
H          4.98196        1.32045       -0.84286
H          5.27860       -2.25495        1.52257
H         -0.60079       -3.38412        2.23176
