36
anti_S_S_2-F_diCF3.log	Energy: -1418894.4947324
C          1.12324       -1.11167       -0.04216
C          2.26694       -0.30542       -0.01980
C          3.56931       -0.87041       -0.04971
C          4.67465       -0.05677       -0.02580
C          6.08258       -0.41804       -0.04843
C          6.48617       -1.86374       -0.10798
F          5.97700       -2.44710       -1.20806
F          7.80578       -2.05370       -0.12580
F          5.99405       -2.53158        0.95092
C          6.89979        0.65977       -0.01139
C          8.40952        0.71113       -0.01753
F          8.93295        0.07882        1.03690
F          8.92160        0.17120       -1.12750
F          8.82382        1.98909        0.03503
C          4.50593        1.36624        0.02953
S          6.05293        2.18991        0.05301
C          3.27211        1.95055        0.05879
C          2.11218        1.12592        0.03482
C          0.82476        1.67006        0.06346
C         -0.31512        0.86535        0.04108
C         -1.62609        1.42378        0.07079
C         -2.72907        0.61369        0.04866
C         -4.12843        0.98376        0.07244
C         -4.91834       -0.09994        0.03827
F         -6.24102       -0.11149        0.04755
C         -2.55347       -0.81847       -0.00548
S         -4.10419       -1.65808       -0.02531
C         -1.32149       -1.39655       -0.03556
C         -0.15906       -0.56719       -0.01309
H          1.24092       -2.19205       -0.08314
H          3.67256       -1.94938       -0.09136
H          3.15735        3.02971        0.10047
H          0.70842        2.75059        0.10456
H         -1.73872        2.50378        0.11154
H         -4.50047        1.99906        0.11261
H         -1.20074       -2.47519       -0.07620
