33
anti_C_O_3-F_C.log	Energy: -592056.7969443
C          1.06800        1.61721       -0.29503
C         -0.06802        0.83378       -0.11371
C         -1.38006        1.39077       -0.23259
C         -2.46787        0.58613       -0.04680
C         -3.90633        0.76480       -0.08063
C         -4.43419       -0.44183        0.19291
C         -2.27920       -0.80007        0.26363
O         -3.49405       -1.41199        0.40661
C         -1.06713       -1.39332        0.39105
C          0.09137       -0.57346        0.20144
C          1.37386       -1.09921        0.31321
C          2.51982       -0.30935        0.13036
C          3.82063       -0.84302        0.24386
C          4.93519       -0.04684        0.05972
C          6.27089       -0.55724        0.16785
F          6.39857       -1.86236        0.46038
C          7.37173        0.20924       -0.00957
C          4.79007        1.35519       -0.25428
C          5.97343        2.14988       -0.43845
C          7.20894        1.59751       -0.32042
C          3.51568        1.88252       -0.36643
C          2.36320        1.08895       -0.18271
H          0.94955        2.67244       -0.53135
H         -1.48956        2.44534       -0.46899
H         -4.45233        1.67433       -0.28266
H         -5.45678       -0.77979        0.27340
H         -0.96681       -2.44723        0.62713
H          1.49547       -2.15390        0.54932
H          3.94476       -1.89518        0.47941
H          8.35708       -0.23274        0.08494
H          5.85743        3.20375       -0.67447
H          8.09652        2.20622       -0.46136
H          3.39450        2.93737       -0.60264
