41
anti_S_NPh_C_3-F.log	Energy: -925823.3366306
C          0.48111        0.26143        1.87323
C          1.85353        0.30032        1.60098
C          2.81563        0.34883        2.64537
C          4.14744        0.38253        2.32867
C          5.35243        0.46206        3.10592
F          5.38820        0.49125        4.43980
C          6.41681        0.48444        2.27435
C          4.58196        0.35971        0.95613
N          5.97197        0.41236        0.95297
C          6.81897        0.43215       -0.17681
C          6.62662       -0.47959       -1.21670
C          7.46897       -0.45325       -2.32254
C          8.51840        0.45947       -2.38868
C          8.71715        1.35592       -1.34227
C          7.86554        1.35335       -0.24312
C          3.68570        0.33676       -0.07851
C          2.29536        0.30240        0.22447
C          1.33236        0.27062       -0.79010
C         -0.03544        0.23355       -0.51564
C         -1.00822        0.20086       -1.55570
C         -2.34503        0.16355       -1.25813
C         -3.48157        0.12687       -2.15593
C         -4.66165        0.09548       -1.50913
C         -2.76659        0.15730        0.11964
S         -4.52239        0.10675        0.23777
C         -1.87156        0.18798        1.14764
C         -0.47440        0.22740        0.85879
H          0.15200        0.25918        2.91013
H          2.48907        0.36805        3.68086
H          7.47197        0.51086        2.50076
H          5.83247       -1.21542       -1.14400
H          7.31335       -1.16395       -3.12851
H          9.17863        0.47086       -3.25009
H          9.53022        2.07411       -1.38647
H          7.99686        2.07363        0.55875
H          4.00723        0.35464       -1.11472
H          1.66096        0.27454       -1.82723
H         -0.67494        0.20614       -2.59049
H         -3.38657        0.12521       -3.23557
H         -5.64787        0.06513       -1.95389
H         -2.19689        0.18335        2.18416
