54
anti_O_NPh_p-CNbenz_tetClbenz.log	Energy: -2065089.4126260
C         -3.60757        0.94532        0.08179
C         -4.65694        0.02113        0.04838
C         -6.01415        0.45191        0.10125
C         -7.02161       -0.47407        0.06638
C         -8.47574       -0.40470        0.09810
C         -9.37411        0.65395        0.17799
Cl        -8.78326        2.28147        0.26365
C        -10.74858        0.40723        0.18895
Cl       -11.86862        1.72307        0.28740
C         -8.95744       -1.73402        0.02827
C        -10.32985       -1.99561        0.04013
Cl       -10.94013       -3.61638       -0.03972
C        -11.21677       -0.91586        0.12009
Cl       -12.91970       -1.21552        0.13497
C         -6.69891       -1.86928       -0.02260
N         -7.88164       -2.60551       -0.04286
C         -7.86875       -4.03007       -0.14401
C         -7.79247       -4.79962        1.01301
C         -7.74138       -6.18563        0.91039
C         -7.75538       -6.79305       -0.34286
C         -7.81313       -6.01534       -1.49687
C         -7.86377       -4.62896       -1.40027
C         -5.41716       -2.33282       -0.07630
C         -4.35443       -1.38474       -0.04134
C         -3.01535       -1.78086       -0.09206
C         -1.96766       -0.85867       -0.05870
C         -0.60462       -1.28446       -0.11180
C          0.38787       -0.34977       -0.07695
C          1.84224       -0.38621       -0.10931
C          2.79461       -1.39147       -0.18872
C          4.14493       -1.02463       -0.19543
C          5.15434       -2.04251       -0.27721
N          5.96829       -2.86544       -0.34356
C          2.25201        0.95299       -0.03882
C          3.58311        1.33775       -0.04401
C          4.53059        0.32581       -0.12373
C          0.05937        1.03997        0.01189
O          1.19842        1.81280        0.03391
C         -1.20973        1.50971        0.06582
C         -2.27169        0.55024        0.03095
H         -3.84278        2.00495        0.14938
H         -6.22281        1.51260        0.16795
H         -7.78611       -4.30710        1.98015
H         -7.69254       -6.79130        1.80977
H         -7.71807       -7.87526       -0.42050
H         -7.82001       -6.48825       -2.47380
H         -7.91162       -4.00538       -2.28733
H         -5.20075       -3.39409       -0.14412
H         -2.78193       -2.84095       -0.15973
H         -0.38098       -2.34547       -0.17914
H          2.51124       -2.43706       -0.24461
H          3.86623        2.38217        0.01172
H          5.58642        0.57359       -0.13132
H         -1.42407        2.57078        0.13287
