44
anti_C_NPh_2-F_C.log	Energy: -724414.5037950
C          0.57230        2.58980        0.06997
C         -0.40926        1.55203        0.05431
C         -1.77495        1.84640       -0.12564
C         -2.70763        0.82679       -0.14150
C         -4.13661        0.78527       -0.32362
C         -4.50554       -0.51909       -0.26027
C         -2.27517       -0.52289        0.03318
N         -3.40348       -1.33303       -0.03852
C         -3.44879       -2.73958        0.08541
C         -2.78070       -3.37642        1.13299
C         -2.83712       -4.76081        1.24801
C         -3.57471       -5.51479        0.33891
C         -4.25157       -4.87523       -0.69584
C         -4.18204       -3.49308       -0.83231
C         -0.94568       -0.85218        0.18871
C          0.00698        0.18475        0.20629
C          1.39823       -0.10275        0.37451
C          2.30884        0.90595        0.36848
C          3.79020        0.92169        0.63146
C          4.98793        0.61152       -0.28696
C          5.14917       -1.99483       -0.07200
C          4.45401       -1.74949       -1.12188
F          3.49745       -2.11774       -1.93929
C          4.16814        2.35647        0.31278
C          5.41043        1.89632       -0.32904
C          5.43194       -0.67070       -0.85661
C          3.09094        3.14111        0.12580
C          1.89559        2.28399        0.22398
H          0.24739        3.61872       -0.06637
H         -2.08436        2.87994       -0.25922
H         -4.79626        1.62800       -0.47157
H         -5.48784       -0.96646       -0.32446
H         -2.23649       -2.78191        1.85953
H         -2.31414       -5.25029        2.06406
H         -3.62212       -6.59481        0.43676
H         -4.82511       -5.45504       -1.41265
H         -4.67978       -2.99311       -1.65764
H         -0.62101       -1.88365        0.28585
H          1.70986       -1.13842        0.49164
H          4.01388        0.62437        1.66358
H          5.44522       -2.56630        0.79041
H          6.25083        2.39883       -0.79330
H          6.34052       -0.60940       -1.46262
H          3.07466        4.14963       -0.27178
