44
anti_C_C_diCF3_diCN.log	Energy: -1069780.4333302
C         -2.83796        0.53681       -0.64676
C         -3.92086        0.08394        0.11042
C         -5.23551        0.55480       -0.11779
C         -6.29957        0.10205        0.63465
C         -7.65125        0.57019        0.41775
C         -7.88853        1.53617       -0.61391
N         -8.03614        2.31694       -1.45778
C         -8.68882        0.09876        1.18518
C        -10.02976        0.56132        0.97226
N        -11.12451        0.91279        0.82804
C         -6.07878       -0.87287        1.67998
C         -7.20151       -1.32991        2.45070
C         -8.45490       -0.86943        2.22001
C         -4.80199       -1.34049        1.91329
C         -3.69611       -0.89050        1.15426
C         -2.40061       -1.35895        1.38393
C         -1.31595       -0.90589        0.62570
C         -0.00621       -1.38347        0.86134
C          1.08115       -0.94772        0.12106
C          2.44560       -1.41932        0.33693
C          2.61750       -2.44796        1.44413
F          1.86405       -3.53656        1.19196
F          3.85945       -2.88236        1.63245
F          2.20365       -1.94146        2.62234
C          3.46888       -0.93451       -0.43579
C          4.93361       -1.34578       -0.30238
F          5.43209       -1.05371        0.90495
F          5.11584       -2.64990       -0.54218
F          5.69862       -0.68885       -1.19378
C          0.84303        0.02871       -0.92016
C          1.95298        0.49204       -1.69360
C          3.20330        0.03437       -1.46286
C         -0.43043        0.50524       -1.16315
C         -1.54213        0.06592       -0.41471
H         -3.00675        1.26971       -1.43171
H         -5.39963        1.28729       -0.90340
H         -7.02599       -2.06209        3.23344
H         -9.29945       -1.21675        2.80385
H         -4.63623       -2.07339        2.69901
H         -2.23075       -2.09196        2.16873
H          0.11071       -2.11102        1.65218
H          1.77354        1.22425       -2.47544
H          4.03031        0.39658       -2.05716
H         -0.58098        1.23846       -1.95153
