47
anti_O_NPh_tetFbenz_diF.log	Energy: -1130781.7574000
C         -2.94416       -1.91631        1.43619
C         -4.06519       -1.19935        0.99723
C         -5.38376       -1.60290        1.34085
C         -6.44959       -0.87318        0.88506
C         -7.86984       -0.98590        1.05277
F         -8.50150       -1.93391        1.74647
C         -8.44113        0.03781        0.37977
F         -9.71734        0.33497        0.23872
C         -6.24076        0.29262        0.06449
N         -7.48853        0.83863       -0.23352
C         -7.75721        1.95394       -1.06740
C         -7.19676        2.01160       -2.34334
C         -7.44419        3.11435       -3.15326
C         -8.26741        4.14387       -2.70493
C         -8.83709        4.07204       -1.43658
C         -8.57585        2.98536       -0.60956
C         -4.98977        0.72257       -0.27586
C         -3.86758       -0.02307        0.18428
C         -2.56118        0.36249       -0.13541
C         -1.44764       -0.35240        0.30357
C         -0.12250        0.06137       -0.03660
C          0.93491       -0.67038        0.41568
C          2.37820       -0.57612        0.28819
C          3.24826        0.29713       -0.34538
F          2.78734        1.34052       -1.03689
C          4.61602        0.07839       -0.25610
F          5.47418        0.90217       -0.85535
C          2.88886       -1.66265        1.00675
C          4.24910       -1.89968        1.10882
F          4.73936       -2.93119        1.79083
C          5.10701       -1.01212        0.46592
F          6.42086       -1.20130        0.53714
C          0.71623       -1.83512        1.21931
O          1.91197       -2.42483        1.56912
C         -0.51179       -2.27882        1.57557
C         -1.64508       -1.53141        1.11587
H         -3.09634       -2.80233        2.04825
H         -5.53584       -2.47926        1.96331
H         -6.57946        1.19103       -2.69492
H         -7.00350        3.16014       -4.14429
H         -8.46582        4.99923       -3.34299
H         -9.47905        4.87193       -1.08110
H         -8.99939        2.93401        0.38768
H         -4.83721        1.61336       -0.87681
H         -2.40891        1.24950       -0.74639
H          0.02700        0.94660       -0.64620
H         -0.64371       -3.16549        2.18597
