33
anti_O_O_2-CF3_diF.log	Energy: -864354.1026893
C          0.92940       -1.26279       -0.00226
C          2.14841       -0.58140        0.00212
C          3.38977       -1.28662        0.00145
C          4.55303       -0.57125        0.00585
C          5.95948       -0.88607        0.00686
F          6.49507       -2.10330        0.00327
C          6.61428        0.28844        0.01212
F          7.89282        0.55974        0.01506
C          4.51801        0.85865        0.01099
O          5.79799        1.36837        0.01479
C          3.37541        1.58499        0.01190
C          2.13943        0.86405        0.00740
C          0.91562        1.53183        0.00801
C         -0.30580        0.84972        0.00368
C         -1.54430        1.55486        0.00447
C         -2.71462        0.84516        0.00008
C         -4.12305        1.18102       -0.00071
C         -4.77269        0.00368       -0.00607
C         -6.23624       -0.29614       -0.00964
F         -6.93427        0.84671       -0.00460
F         -6.59019       -0.99869       -1.09352
F         -6.59309       -1.01012        1.06576
C         -2.67533       -0.58300       -0.00522
O         -3.94946       -1.08360       -0.00899
C         -1.53137       -1.31394       -0.00621
C         -0.29776       -0.59516       -0.00167
H          0.93598       -2.35020       -0.00625
H          3.39516       -2.37188       -0.00250
H          3.38761        2.66952        0.01588
H          0.90898        2.61941        0.01202
H         -1.54124        2.64094        0.00855
H         -4.57362        2.16183        0.00235
H         -1.54424       -2.39836       -0.01027
