54
anti_O_NPh_tetFbenz_p-CNbenz.log	Energy: -1160536.4761694
C         -3.45414        1.03231        0.00392
C         -4.52137        0.12967        0.01063
C         -5.87392        0.58091        0.01414
C         -6.88999       -0.32987        0.02259
C         -8.33919       -0.20955        0.01678
C         -9.19802        0.87792        0.01677
C        -10.57704        0.64449        0.02569
C        -11.48739        1.75304        0.02325
N        -12.22327        2.64944        0.02081
C         -8.85863       -1.52191        0.02097
C        -10.23173       -1.76381        0.04072
C        -11.08109       -0.66873        0.04117
C         -6.60184       -1.73894        0.03117
N         -7.81409       -2.43351        0.02892
C         -7.94996       -3.84571        0.03558
C         -7.39915       -4.58983        1.07847
C         -7.52597       -5.97473        1.07723
C         -8.21655       -6.61474        0.05111
C         -8.77245       -5.86673       -0.98335
C         -8.63154       -4.48303       -1.00057
C         -5.32589       -2.22079        0.01779
C         -4.24747       -1.28613        0.00943
C         -2.91636       -1.70985       -0.00086
C         -1.84940       -0.80865       -0.00830
C         -0.49631       -1.26647       -0.01854
C          0.51209       -0.34803       -0.02500
C          1.96240       -0.41584       -0.03561
C          2.89316       -1.44326       -0.04322
F          2.50392       -2.71889       -0.04124
C          4.24610       -1.13418       -0.05288
F          5.16176       -2.10116       -0.06024
C          2.39870        0.91338       -0.03779
C          3.74305        1.24454       -0.04743
F          4.16141        2.50689       -0.04956
C          4.66217        0.19972       -0.05494
F          5.96332        0.47019       -0.06421
C          0.21437        1.05149       -0.02172
O          1.36885        1.80283       -0.02953
C         -1.04556        1.54799       -0.01225
C         -2.12553        0.60839       -0.00524
H         -3.66752        2.09875        0.00507
H         -6.07678        1.64853        0.00579
H         -8.81763        1.89420        0.01285
H        -10.62533       -2.77395        0.06016
H        -12.15513       -0.82029        0.05597
H         -6.88089       -4.07771        1.88322
H         -7.09459       -6.55361        1.88791
H         -8.32082       -7.69515        0.05747
H         -9.30676       -6.36165       -1.78829
H         -9.03982       -3.89167       -1.81444
H         -5.11705       -3.28586        0.00907
H         -2.70286       -2.77628       -0.00353
H         -0.28630       -2.33101       -0.02117
H         -1.23870        2.61514       -0.01016
