52
anti_O_NPh_3-OMe_m-CNbenz.log	Energy: -886989.4234583
C         -2.64227       -1.91117        0.28689
C         -1.62065       -0.96300        0.20677
C         -0.27524       -1.34259       -0.07501
C          0.69786       -0.38802       -0.14343
C          2.12415       -0.43958       -0.41583
C          3.00333       -1.48301       -0.68598
C          4.34673       -1.20215       -0.89275
C          2.59771        0.88816       -0.35848
C          3.93956        1.18940       -0.55022
C          4.80429        0.12406       -0.82091
C          6.19929        0.39754       -1.03063
N          7.32457        0.61802       -1.20196
C          0.37351        0.99789        0.07066
N          1.54401        1.74737       -0.06675
C          1.64206        3.15416        0.07412
C          1.23583        3.76285        1.26170
C          1.32653        5.14415        1.39397
C          1.84044        5.91649        0.35534
C          2.25362        5.30413       -0.82479
C          2.14476        3.92547       -0.97363
C         -0.89913        1.41271        0.33176
C         -1.93413        0.43142        0.40866
C         -3.25652        0.78629        0.67600
C         -4.28315       -0.16086        0.75615
C         -5.62730        0.22666        1.03064
C         -6.59057       -0.74039        1.09819
C         -8.01663       -0.74550        1.34579
O         -8.70924        0.38351        1.58365
C        -10.09133        0.19416        1.80404
C         -8.41880       -2.03509        1.28166
C         -6.25897       -2.11307        0.89784
O         -7.37154       -2.89174        1.01055
C         -4.99698       -2.54300        0.63318
C         -3.96681       -1.55711        0.55582
H         -2.39893       -2.96036        0.13391
H         -0.04359       -2.39220       -0.23671
H          2.64556       -2.50690       -0.73231
H          5.05139       -1.99761       -1.10706
H          4.31351        2.20507       -0.49012
H          0.85766        3.14870        2.07298
H          1.00744        5.61624        2.31804
H          1.91899        6.99348        0.46562
H          2.65073        5.90154       -1.63952
H          2.44089        3.44134       -1.89924
H         -1.14024        2.46116        0.47582
H         -3.49996        1.83560        0.82735
H         -5.87038        1.27395        1.18143
H        -10.26322       -0.44460        2.68076
H        -10.56803       -0.26191        0.92601
H        -10.51790        1.18153        1.98089
H         -9.38019       -2.50910        1.39956
H         -4.77152       -3.59367        0.48443
