38
anti_S_O_diCN_benz.log	Energy: -943198.7407954
C         -2.68112       -1.98687        0.11365
C         -1.66777       -1.02923        0.12173
C         -0.30620       -1.39003       -0.12461
C          0.65444       -0.42331       -0.10760
C          2.09545       -0.39625       -0.30440
C          3.06844       -1.35094       -0.58937
C          4.39024       -0.93512       -0.70881
C          2.46827        0.94282       -0.14719
C          3.77602        1.38031       -0.26127
C          4.73548        0.41163       -0.54649
C          0.29403        0.94008        0.15562
O          1.39527        1.75202        0.12886
C         -0.97584        1.34709        0.39630
C         -2.00513        0.35206        0.38451
C         -3.33598        0.68605        0.62237
C         -4.35414       -0.27574        0.61426
C         -5.70702        0.07641        0.85792
C         -6.67813       -0.89218        0.84207
C         -8.10219       -0.74492        1.06345
C         -8.71364        0.51156        1.34465
N         -9.16471        1.55523        1.57023
C         -8.77820       -1.92680        0.97285
C        -10.17835       -2.10474        1.13978
N        -11.31867       -2.26568        1.27325
C         -6.33417       -2.25910        0.58076
S         -7.75215       -3.29900        0.61629
C         -5.04465       -2.63877        0.34167
C         -4.01788       -1.65221        0.35243
H         -2.42417       -3.02490       -0.08426
H         -0.05933       -2.42946       -0.32142
H          2.80100       -2.39564       -0.71535
H          5.16477       -1.66211       -0.93044
H          4.03202        2.42583       -0.13360
H          5.77436        0.71081       -0.64465
H         -1.21412        2.38682        0.59199
H         -3.59460        1.72330        0.82053
H         -5.96779        1.11265        1.05609
H         -4.78481       -3.67441        0.14379
