44
anti_C_S_3-OMe_m-CNbenz.log	Energy: -958570.7130927
C         -2.56409       -1.41769       -0.69312
C         -1.47160       -0.70235       -0.21659
C         -0.15634       -0.91215       -0.73290
C          0.90267       -0.19920       -0.25092
C          2.30550       -0.26914       -0.64520
C          2.89511       -1.08490       -1.61234
C          4.25804       -1.00692       -1.84674
C          3.10736        0.62682        0.08307
C          4.47452        0.71820       -0.13851
C          5.04485       -0.10728       -1.11102
C          6.45757       -0.03222       -1.35991
N          7.59738        0.02645       -1.56274
C          0.69394        0.77564        0.78993
S          2.19788        1.57460        1.25818
C         -0.53805        1.01223        1.31402
C         -1.66643        0.27841        0.82634
C         -2.94445        0.48482        1.33017
C         -4.05212       -0.23513        0.85233
C         -5.35172       -0.02802        1.36194
C         -6.43303       -0.74291        0.88360
C         -7.76988       -0.53594        1.40189
O         -7.84608        0.40226        2.37412
C         -9.11136        0.66775        2.93687
C         -8.82406       -1.25245        0.91563
C         -6.24615       -1.72432       -0.15769
C         -7.38582       -2.45473       -0.63836
C         -8.61636       -2.22122       -0.11762
C         -4.97421       -1.93234       -0.66204
C         -3.85806       -1.21284       -0.18693
H         -2.41552       -2.15576       -1.47824
H         -0.01758       -1.65162       -1.51754
H          2.28831       -1.78140       -2.18256
H          4.72570       -1.63614       -2.59578
H          5.09478        1.40876        0.42248
H         -0.68881        1.74843        2.09823
H         -3.09547        1.22224        2.11516
H         -5.50298        0.70758        2.14480
H         -9.81447        1.03507        2.17882
H         -8.95113        1.44106        3.68864
H         -9.52902       -0.22671        3.41586
H         -9.82783       -1.10567        1.29594
H         -7.24008       -3.19231       -1.42202
H         -9.47652       -2.77462       -0.48245
H         -4.82766       -2.67085       -1.44697
