36
anti_C_S_3-F_3-CF3.log	Energy: -1006174.7935711
C         -2.81463        0.42129        1.20916
C         -3.96480       -0.17350        0.69942
C         -5.26012        0.17619        1.18298
C         -6.37426       -0.42352        0.66406
C         -7.77348       -0.22324        1.00113
C         -8.22912        0.74013        2.04686
F         -7.71134        0.43865        3.25187
F         -7.83488        1.99546        1.76410
F         -9.56419        0.75273        2.17085
C         -8.61102       -0.99280        0.27995
C         -6.23806       -1.41218       -0.37483
S         -7.81290       -2.02976       -0.86995
C         -5.02285       -1.77828       -0.86782
C         -3.84215       -1.16732       -0.34367
C         -2.57778       -1.50603       -0.81364
C         -1.41562       -0.90814       -0.30206
C         -0.13107       -1.24848       -0.77607
C          1.00010       -0.64725       -0.25823
C          2.31985       -0.97033       -0.71762
F          2.41333       -1.89548       -1.68668
C          3.43677       -0.39073       -0.22083
C          0.89051        0.34671        0.78380
C          2.09083        0.94881        1.29607
C          3.30913        0.59282        0.81213
C         -0.36717        0.68360        1.25168
C         -1.53679        0.08318        0.73832
H         -2.90763        1.16874        1.99360
H         -5.34652        0.92300        1.96580
H         -9.68964       -1.01310        0.35868
H         -4.92891       -2.52455       -1.65128
H         -2.48371       -2.25331       -1.59814
H         -0.03344       -1.99372       -1.55889
H          4.40902       -0.67482       -0.60699
H          2.00145        1.69555        2.07958
H          4.21007        1.05296        1.20526
H         -0.46189        1.43081        2.03613
