52
anti_C_NPh_diF_diOMe.log	Energy: -930468.8130562
C         -2.26497       -1.24591        1.95893
C         -3.28079       -0.38298        1.56007
C         -4.58529       -0.44531        2.13774
C         -5.55652        0.41582        1.71052
C         -6.93200        0.61983        2.08979
O         -7.60670       -0.09465        3.04269
C         -7.98395       -1.39139        2.60739
C         -7.40730        1.66060        1.34039
O         -8.58477        2.28038        1.26769
C         -9.63087        1.79737        2.10106
C         -5.26200        1.39455        0.69238
N         -6.41448        2.15011        0.49276
C         -6.57025        3.19726       -0.45046
C         -6.25686        2.96723       -1.79008
C         -6.37811        3.99864       -2.71515
C         -6.83282        5.25115       -2.31256
C         -7.15799        5.47177       -0.97654
C         -7.01778        4.45293       -0.04132
C         -4.03103        1.50564        0.12076
C         -3.00014        0.60610        0.53712
C         -1.72600        0.66365       -0.01690
C         -0.69979       -0.20730        0.38337
C          0.59199       -0.14920       -0.17933
C          1.58793       -1.01696        0.23015
C          2.90621       -0.97701       -0.32687
F          3.17005       -0.06633       -1.27343
C          3.87211       -1.83485        0.08524
F          5.09904       -1.78113       -0.44917
C          1.31962       -2.00462        1.24932
C          2.37637       -2.89037        1.65215
C          3.61043       -2.80954        1.09045
C          0.05269       -2.06441        1.80372
C         -0.97794       -1.19003        1.40102
H         -2.47268       -1.98728        2.72761
H         -4.78640       -1.16663        2.92486
H         -8.70666       -1.33506        1.78176
H         -8.44449       -1.88830        3.46369
H         -7.11466       -1.96957        2.27214
H        -10.47471        2.46325        1.92054
H         -9.33938        1.82657        3.15332
H         -9.90365        0.77318        1.82740
H         -5.92449        1.98104       -2.09862
H         -6.12814        3.81695       -3.75597
H         -6.93396        6.05293       -3.03742
H         -7.51121        6.44710       -0.65596
H         -7.25431        4.62094        1.00338
H         -3.81469        2.26002       -0.62896
H         -1.51455        1.40609       -0.78331
H          0.80496        0.58951       -0.94547
H          2.17052       -3.63109        2.41902
H          4.42074       -3.46913        1.38133
H         -0.15709       -2.80538        2.57201
