39
anti_C_S_3-F_tetClbenz.log	Energy: -2044671.2295164
C         -2.95971       -1.56515       -0.09695
C         -1.91865       -0.64968       -0.00402
C         -0.55888       -1.06312       -0.15715
C          0.46758       -0.16329       -0.06584
C          1.92152       -0.34828       -0.18549
C          2.68565       -1.49730       -0.42816
Cl         1.92757       -3.04254       -0.64702
C          4.08262       -1.42674       -0.50000
Cl         5.01224       -2.85394       -0.79992
C          2.60867        0.86909       -0.01875
C          3.99396        0.95338       -0.08755
Cl         4.75450        2.49301        0.13014
C          4.74074       -0.19913       -0.32935
Cl         6.46218       -0.10831       -0.41672
C          0.14386        1.22191        0.19040
S          1.57036        2.24824        0.27961
C         -1.13225        1.66316        0.34305
C         -2.21766        0.73772        0.25084
C         -3.53967        1.13391        0.39857
C         -4.59842        0.21349        0.30579
C         -5.94357        0.60720        0.45442
C         -6.96933       -0.31547        0.35928
C         -8.34739        0.05224        0.50533
F         -8.60613        1.34844        0.74175
C         -9.36208       -0.83858        0.41499
C         -6.68285       -1.70693        0.10482
C         -7.77571       -2.63484        0.01299
C         -9.05917       -2.21450        0.16231
C         -5.36255       -2.09736       -0.04176
C         -4.30120       -1.17389        0.05123
H         -2.73342       -2.61142       -0.28905
H         -0.37248       -2.11065       -0.34719
H         -1.34583        2.71068        0.53493
H         -3.76614        2.17996        0.59078
H         -6.17466        1.65000        0.64620
H        -10.38603       -0.50323        0.53399
H         -7.55268       -3.68032       -0.17857
H         -9.87887       -2.92227        0.09141
H         -5.13392       -3.14307       -0.23377
