45
anti_S_NPh_diCl_2-OMe.log	Energy: -1512197.6642504
C          0.93428        1.60157        0.06651
C         -0.26390        0.88258        0.03014
C         -1.52835        1.53908        0.06119
C         -2.68270        0.80305        0.02832
C         -4.08214        1.14712        0.03276
C         -4.76568       -0.03072       -0.02786
O         -6.07068       -0.30345       -0.04104
C         -6.92440        0.82448        0.04709
C         -2.60368       -0.63643       -0.03608
N         -3.90958       -1.12277       -0.07138
C         -4.29282       -2.48860       -0.06817
C         -3.79113       -3.34031        0.91587
C         -4.14152       -4.68608        0.90806
C         -5.00714       -5.17919       -0.06429
C         -5.51588       -4.32175       -1.03639
C         -5.15322       -2.97966       -1.04892
C         -1.42043       -1.31156       -0.08139
C         -0.20893       -0.55912       -0.04541
C          1.03672       -1.18784       -0.08238
C          2.23315       -0.46655       -0.04659
C          3.49785       -1.11740       -0.08392
C          4.65094       -0.38142       -0.04594
C          6.02757       -0.83596       -0.07227
Cl         6.44394       -2.50733       -0.16257
C          6.92304        0.17188       -0.01921
Cl         8.63189        0.03307       -0.02892
C          4.58680        1.05125        0.03133
S          6.19602        1.76995        0.06748
C          3.39628        1.71434        0.06893
C          2.17932        0.97104        0.03091
H          0.89409        2.68720        0.12390
H         -1.55985        2.62427        0.10637
H         -4.50422        2.13919        0.07529
H         -7.94174        0.43473        0.03833
H         -6.77215        1.49219       -0.80860
H         -6.74190        1.37403        0.97737
H         -3.13372       -2.94169        1.68207
H         -3.74545       -5.34732        1.67262
H         -5.28494       -6.22861       -0.06458
H         -6.18998       -4.70102       -1.79826
H         -5.53289       -2.30832       -1.81110
H         -1.38135       -2.39429       -0.14788
H          1.07856       -2.27326       -0.14095
H          3.54013       -2.20127       -0.14260
H          3.35360        2.79823        0.12732
