37
anti_C_C_3-CN_diF.log	Energy: -713565.3537616
C         -2.88801        0.62679        0.41289
C         -3.95856       -0.23564        0.50110
C         -6.07805       -2.15327        0.67672
C         -6.37820       -0.73908        0.71073
C         -7.70422       -0.30589        0.82956
F         -8.68972       -1.20836        0.91198
C         -8.02172        1.03618        0.86380
F         -9.29944        1.40783        0.97789
C         -5.34837        0.22654        0.62512
C         -5.69848        1.58639        0.66214
C         -7.01528        1.99186        0.77966
C         -4.80774       -2.58147        0.56243
C         -3.70032       -1.65645        0.47029
C         -2.40911       -2.12341        0.35429
C         -1.30416       -1.24648        0.26273
C          0.01340       -1.71344        0.14436
C          1.08226       -0.83162        0.05635
C          2.45175       -1.27347       -0.06650
C          2.73263       -2.68014       -0.10016
N          2.94263       -3.82041       -0.12609
C          3.48151       -0.37550       -0.15096
C          0.83787        0.58506        0.08689
C          1.94819        1.48456       -0.00451
C          3.22425        1.02348       -0.11932
C         -0.46840        1.04790        0.20414
C         -1.55381        0.16528        0.29345
H         -3.03730        1.70146        0.43262
H         -6.89964       -2.85665        0.74506
H         -4.93464        2.35199        0.59827
H         -7.28564        3.04147        0.80808
H         -4.58604       -3.64469        0.53701
H         -2.22953       -3.19564        0.33229
H          0.19515       -2.78483        0.12172
H          4.50108       -0.73479       -0.24264
H          1.74919        2.55259        0.01979
H          4.05673        1.71566       -0.18776
H         -0.65178        2.11974        0.22697
