53
anti_S_NPh_m-CF3benz_3-CF3.log	Energy: -1382849.4813434
C         -3.06692       -2.14655        1.28224
C         -4.13518       -1.39503        0.77472
C         -5.48391       -1.76730        1.02259
C         -6.49867       -1.00626        0.50456
C         -7.93949       -1.08085        0.57890
C         -8.72922       -2.12374        1.27193
F         -8.50398       -3.34988        0.76115
F         -8.41879       -2.20016        2.58112
F        -10.04978       -1.88576        1.18239
C         -8.43713       -0.03179       -0.12411
C         -6.20061        0.15495       -0.28725
N         -7.41838        0.72474       -0.66077
C         -7.60191        1.89069       -1.44523
C         -6.93541        2.02482       -2.66336
C         -7.12629        3.17028       -3.42803
C         -7.99361        4.16980       -2.99440
C         -8.66594        4.02430       -1.78422
C         -8.46427        2.89241       -1.00155
C         -4.91926        0.56240       -0.53572
C         -3.85103       -0.21443       -0.00707
C         -2.51512        0.14211       -0.22781
C         -1.45695       -0.60841        0.28077
C         -0.09814       -0.23905        0.05190
C          0.92268       -0.99094        0.55974
C          2.36160       -0.78045        0.43798
C          3.03791        0.24133       -0.23110
C          4.42301        0.26583       -0.23331
C          3.10182       -1.77174        1.10079
C          4.49221       -1.75709        1.10580
C          5.14360       -0.73070        0.43306
C          6.64588       -0.64772        0.45575
F          7.21393       -1.81379        0.80214
F          7.13882       -0.29949       -0.74563
F          7.07312        0.27792        1.33351
C          0.62503       -2.16791        1.33308
S          2.09044       -2.98298        1.88652
C         -0.65503       -2.55986        1.57848
C         -1.74036       -1.78855        1.05780
H         -3.28409       -3.03552        1.86998
H         -5.69742       -2.64450        1.62560
H         -9.46698        0.23619       -0.31349
H         -6.28684        1.22704       -3.01077
H         -6.60611        3.27324       -4.37528
H         -8.14541        5.05882       -3.59822
H         -9.34006        4.80131       -1.43754
H         -8.95998        2.78742       -0.04118
H         -4.70279        1.45677       -1.11112
H         -2.29775        1.03225       -0.81420
H          0.10822        0.65294       -0.53433
H          2.48149        1.01477       -0.75166
H          4.95333        1.05437       -0.75606
H          5.05901       -2.52711        1.61665
H         -0.87341       -3.44875        2.16329
