49
anti_C_NPh_3-OMe_3-CN.log	Energy: -791993.0049544
C         -2.77361       -1.44228       -1.59857
C         -3.66396       -0.60474       -0.92824
C         -5.03226       -0.51213       -1.31885
C         -5.87116        0.31835       -0.63177
C         -7.27551        0.65901       -0.77205
C         -8.18032        0.13874       -1.73145
N         -8.90214       -0.30050       -2.52747
C         -7.56679        1.56952        0.20342
C         -5.38396        1.08894        0.47984
N         -6.45980        1.83955        0.96727
C         -6.43204        2.74164        2.06129
C         -6.95540        4.02486        1.91078
C         -6.95375        4.89948        2.99225
C         -6.41220        4.50543        4.21252
C         -5.88170        3.22546        4.35332
C         -5.89834        2.33642        3.28459
C         -4.08105        1.05134        0.88190
C         -3.18186        0.19197        0.18210
C         -1.83936        0.10056        0.54509
C         -0.94484       -0.74042       -0.12969
C          0.41670       -0.83349        0.23903
C          1.28722       -1.66699       -0.43311
C          2.68453       -1.76785       -0.06142
O          3.03603       -0.98132        0.98338
C          4.37859       -1.01593        1.41043
C          3.52842       -2.59792       -0.73826
C          0.81323       -2.46755       -1.53826
C          1.74030       -3.32803       -2.22143
C          3.03754       -3.38355       -1.83119
C         -0.51654       -2.38220       -1.90566
C         -1.42470       -1.53547       -1.23169
H         -3.13690       -2.04012       -2.43141
H         -5.39239       -1.09585       -2.16135
H         -8.51220        2.04148        0.43225
H         -7.34590        4.33643        0.94666
H         -7.36421        5.89738        2.87393
H         -6.40349        5.19357        5.05178
H         -5.46563        2.90939        5.30483
H         -5.51520        1.32712        3.39518
H         -3.71592        1.65723        1.70494
H         -1.47322        0.69864        1.37666
H          0.78256       -0.23643        1.06776
H          5.05879       -0.69443        0.61155
H          4.66395       -2.02111        1.74578
H          4.44763       -0.32068        2.24769
H          4.57432       -2.67998       -0.46762
H          1.37923       -3.92805       -3.05156
H          3.73546       -4.03455       -2.34931
H         -0.87853       -2.98256       -2.73731
