45
anti_C_C_diCN_p-CNbenz.log	Energy: -801153.1063432
C         -2.27213        1.36115        0.44627
C         -3.48095        0.68658        0.59501
C         -4.71456        1.38177        0.73328
C         -5.91243        0.72786        0.88082
C         -7.19720        1.43138        1.02589
C         -7.29076        2.82874        1.02608
C         -8.51825        3.46621        1.16495
C         -8.57367        4.90160        1.16054
N         -8.61589        6.06005        1.15647
C         -8.38676        0.68101        1.17153
C         -9.61911        1.34210        1.31066
C         -9.69776        2.71785        1.30894
C         -5.91413       -0.72135        0.89454
C         -7.16908       -1.42516        1.04771
C         -8.33443       -0.76583        1.17783
C         -4.73635       -1.41544        0.76296
C         -3.48890       -0.75458        0.61021
C         -2.28948       -1.44832        0.47628
C         -1.06924       -0.77389        0.32632
C          0.15064       -1.47020        0.19012
C          1.34892       -0.79657        0.04296
C          2.60962       -1.48865       -0.09781
C          2.61497       -2.92190       -0.08428
N          2.57567       -4.08023       -0.06831
C          3.78355       -0.78735       -0.24215
C          5.03634       -1.47202       -0.38203
N          6.06523       -1.99258       -0.49707
C          1.36207        0.64714        0.02707
C          2.61598        1.32774       -0.12649
C          3.78178        0.64705       -0.25617
C          0.17244        1.33874        0.15962
C         -1.06031        0.66894        0.31089
H         -2.26473        2.44850        0.43467
H         -4.66922        2.46583        0.71701
H         -6.40649        3.44542        0.91825
H        -10.52281        0.74972        1.42139
H        -10.65071        3.22401        1.41667
H         -7.14503       -2.51130        1.05472
H         -9.26780       -1.30970        1.29166
H         -4.75228       -2.50264        0.77510
H         -2.29586       -2.53544        0.48792
H          0.13836       -2.55666        0.20240
H          2.61625        2.41379       -0.13731
H          4.72671        1.16522       -0.37192
H          0.18331        2.42587        0.14759
