47
anti_S_NPh_3-F_tetClbenz.log	Energy: -2175765.3657790
C         -2.85363       -1.74392        0.08391
C         -1.78894       -0.84092        0.06544
C         -0.43880       -1.30013        0.04188
C          0.58579       -0.39412        0.02442
C          2.03871       -0.49293       -0.00092
C          2.91682       -1.57091       -0.01687
Cl         2.29575       -3.18941       -0.00732
C          4.29618       -1.35125       -0.04060
Cl         5.39110       -2.69173       -0.06107
C          2.54572        0.82896       -0.00886
C          3.92267        1.06321       -0.03192
Cl         4.56360        2.67424       -0.04063
C          4.78930       -0.03599       -0.04782
Cl         6.49768        0.23072       -0.07666
C          0.28942        1.01088        0.03020
N          1.48697        1.72359        0.01009
C          1.50126        3.15157        0.00762
C          1.48999        3.84007        1.21702
C          1.46520        5.23054        1.21234
C          1.44002        5.92338        0.00436
C          1.43228        5.22696       -1.20182
C          1.45678        3.83649       -1.20306
C         -0.98194        1.50211        0.05204
C         -2.06540        0.57522        0.07046
C         -3.39394        1.00086        0.09353
C         -4.46125        0.09723        0.11206
C         -5.81298        0.53892        0.13567
C         -6.82769       -0.37970        0.15354
C         -8.25491       -0.16068        0.17865
F         -8.74824        1.08031        0.18714
C         -9.00224       -1.27617        0.19202
C         -6.54571       -1.78593        0.14872
S         -8.03029       -2.73649        0.17517
C         -5.26276       -2.24989        0.12618
C         -4.18385       -1.31796        0.10719
H         -2.63992       -2.81039        0.08011
H         -0.25139       -2.36682        0.03831
H          1.51259        3.28153        2.14734
H          1.46694        5.77295        2.15251
H          1.42298        7.00888        0.00298
H          1.40834        5.76659       -2.14328
H          1.45379        3.27522       -2.13201
H         -1.17718        2.56959        0.05566
H         -3.60712        2.06727        0.09734
H         -6.03345        1.60226        0.13948
H        -10.08116       -1.33371        0.21108
H         -5.04443       -3.31400        0.12244
