39
anti_S_S_2-CF3_diCF3.log	Energy: -1568084.8567113
C          1.11911       -1.13466       -0.04816
C          2.25734       -0.32281       -0.02849
C          3.56348       -0.88194       -0.05337
C          4.66413       -0.06303       -0.03232
C          6.07389       -0.41849       -0.05045
C          6.48330       -1.86315       -0.09841
F          5.97338       -2.45766       -1.19197
F          7.80349       -2.04750       -0.11834
F          5.99628       -2.52313        0.96761
C          6.88603        0.66308       -0.01819
C          8.39592        0.72081       -0.02137
F          8.91907        0.09584        1.03723
F          8.91173        0.17772       -1.12768
F          8.80407        2.00083        0.02567
C          4.48973        1.36039        0.01460
S          6.03328        2.19046        0.03526
C          3.25395        1.93936        0.03887
C          2.09730        1.10895        0.01805
C          0.80889        1.64734        0.04220
C         -0.32791        0.83604        0.02295
C         -1.63880        1.38927        0.04879
C         -2.73597        0.56888        0.02960
C         -4.13642        0.92679        0.05068
C         -4.94729       -0.14721        0.02156
C         -6.44365       -0.11399        0.03037
F         -6.89425        1.14637        0.09127
F         -6.95471       -0.67961       -1.07401
F         -6.94401       -0.78044        1.08210
C         -2.56106       -0.85920       -0.01750
S         -4.10995       -1.69108       -0.03399
C         -1.32397       -1.43267       -0.04337
C         -0.16809       -0.59708       -0.02365
H          1.24239       -2.21444       -0.08321
H          3.67221       -1.96050       -0.08921
H          3.13406        3.01813        0.07408
H          0.68686        2.72738        0.07732
H         -1.75852        2.46877        0.08414
H         -4.49688        1.94728        0.08615
H         -1.19738       -2.51068       -0.07848
