47
anti_S_NPh_diCF3_diCl.log	Energy: -1863230.4609481
C          0.03918        0.11921       -1.82947
C         -1.24814        0.00874       -1.29411
C         -2.40068        0.04877       -2.12680
C         -3.64152       -0.06138       -1.55976
C         -4.97909       -0.06772       -2.09038
Cl        -5.40290        0.09799       -3.74748
C         -5.83282       -0.21520       -1.04284
Cl        -7.54019       -0.25350       -1.07644
C         -3.78003       -0.21393       -0.13662
N         -5.13692       -0.30740        0.15556
C         -5.68133       -0.47218        1.45964
C         -6.35992       -1.64252        1.79137
C         -6.87604       -1.79410        3.07378
C         -6.69528       -0.79264        4.02426
C         -6.00411        0.36912        3.68993
C         -5.50231        0.53700        2.40376
C         -2.70329       -0.26675        0.70185
C         -1.40189       -0.15255        0.13533
C         -0.25760       -0.19325        0.93587
C          1.02671       -0.08233        0.39812
C          2.18152       -0.12401        1.22614
C          3.43172       -0.01258        0.67281
C          4.73068       -0.02868        1.32614
C          4.81883       -0.18448        2.81732
F          4.14680        0.80538        3.43277
F          4.24917       -1.34057        3.20285
F          6.06697       -0.17480        3.28704
C          5.75697        0.10586        0.45481
C          7.24172        0.13674        0.72997
F          7.66603       -0.99418        1.30205
F          7.91845        0.28084       -0.42279
F          7.58054        1.15939        1.52105
C          3.56860        0.14545       -0.74717
S          5.25483        0.26377       -1.21453
C          2.48814        0.19110       -1.57898
C          1.17946        0.07837       -1.02672
H          0.15264        0.24011       -2.90430
H         -2.28821        0.16275       -3.20095
H         -6.47713       -2.42322        1.04679
H         -7.41120       -2.70209        3.33301
H         -7.09278       -0.91799        5.02658
H         -5.86397        1.15259        4.42797
H         -4.97512        1.44314        2.12217
H         -2.82166       -0.39336        1.77331
H         -0.36938       -0.31507        2.01077
H          2.05519       -0.24455        2.29671
H          2.60362        0.31139       -2.65218
