46
anti_C_S_p-CNbenz_benz.log	Energy: -983112.2856344
C         -2.84054       -1.33697        0.51223
C         -1.73559       -0.62808        0.04524
C         -0.41868       -0.88872        0.52957
C          0.65015       -0.18193        0.05824
C          2.05905       -0.29857        0.42336
C          2.64855       -1.16496        1.34538
C          4.02048       -1.12047        1.55189
C          2.86801        0.60616       -0.28150
C          4.24398        0.65699       -0.08019
C          4.81249       -0.21387        0.84214
C          0.44476        0.83746       -0.93849
S          1.95521        1.62095       -1.40166
C         -0.79217        1.12203       -1.43111
C         -1.92609        0.39536       -0.95299
C         -3.21095        0.65086       -1.42717
C         -4.32179       -0.06135       -0.95849
C         -5.63178        0.19413       -1.43770
C         -6.72947       -0.50092       -0.98295
C         -8.09481       -0.25072       -1.46803
C         -8.38133        0.71918       -2.43807
C         -9.68229        0.93417       -2.87708
C         -9.93670        1.93755       -3.87281
N        -10.14227        2.74734       -4.67658
C         -9.16807       -1.00986       -0.94500
C        -10.47794       -0.77826       -1.40111
C        -10.74560        0.17880       -2.35469
C         -6.53136       -1.52383        0.01789
C         -7.67209       -2.26346        0.50909
C         -8.91679       -2.02234        0.05661
C         -5.26717       -1.78724        0.49605
C         -4.13130       -1.07982        0.03557
H         -2.69777       -2.10884        1.26519
H         -0.28402       -1.66183        1.28173
H          2.03537       -1.87070        1.89850
H          4.48046       -1.79347        2.26843
H          4.86122        1.36020       -0.63025
H          5.88463       -0.18684        1.01074
H         -0.93878        1.89217       -2.18286
H         -3.35521        1.42243       -2.18008
H         -5.73665        0.97101       -2.18834
H         -7.59208        1.32406       -2.86825
H        -11.28926       -1.37074       -0.98779
H        -11.75727        0.35423       -2.70370
H         -7.49698       -3.02751        1.26171
H         -9.76361       -2.58702        0.43637
H         -5.13265       -2.56017        1.24948
