46
anti_S_O_p-CF3benz_p-CNbenz.log	Energy: -1193172.9199889
C         -3.55815        1.23446       -0.00461
C         -4.60649        0.31120       -0.00554
C         -5.96910        0.73953       -0.00693
C         -6.96166       -0.19590       -0.00770
C         -8.41637       -0.15881       -0.00903
C         -9.37003        0.84846       -0.01008
C        -10.72005        0.48080       -0.01123
C        -11.73109        1.50041       -0.01234
N        -12.54643        2.32457       -0.01323
C         -8.82469       -1.50009       -0.00916
C        -10.15530       -1.88587       -0.01029
C        -11.10417       -0.87193       -0.01132
C         -6.63164       -1.58785       -0.00716
O         -7.76886       -2.36144       -0.00806
C         -5.36148       -2.05958       -0.00588
C         -4.30019       -1.09973       -0.00502
C         -2.96285       -1.49781       -0.00359
C         -1.91598       -0.57234       -0.00259
C         -0.55276       -0.98631       -0.00096
C          0.45422       -0.06205        0.00017
C          1.89709       -0.28018        0.00214
C          2.58767       -1.49179        0.00320
C          3.97407       -1.48572        0.00519
C          4.75170       -2.77250        0.00802
F          3.95352       -3.85181       -0.00286
F          5.56016       -2.85952       -1.06350
F          5.54021       -2.86684        1.09372
C          2.61816        0.92329        0.00305
C          4.01181        0.93257        0.00505
C          4.68401       -0.27899        0.00615
C          0.13435        1.33925       -0.00037
S          1.58315        2.34753        0.00141
C         -1.15421        1.78164       -0.00200
C         -2.22124        0.83351       -0.00312
H         -3.79154        2.29672       -0.00501
H         -6.19288        1.80258       -0.00730
H         -9.08806        1.89590       -0.01001
H        -10.43746       -2.93200       -0.01035
H        -12.15991       -1.12014       -0.01223
H         -5.14716       -3.12269       -0.00549
H         -2.72819       -2.55967       -0.00317
H         -0.32935       -2.05006       -0.00053
H          2.04805       -2.43239        0.00243
H          4.56347        1.86675        0.00567
H          5.76910       -0.29409        0.00757
H         -1.38923        2.84205       -0.00238
