47
anti_C_O_m-OMebenz_2-OMe.log	Energy: -769875.4935910
C          0.92512        2.15908       -0.62997
C         -0.09812        1.28158       -0.27244
C         -1.46840        1.69122       -0.28450
C         -2.44245        0.80062        0.07262
C         -3.88232        0.82977        0.18383
C         -4.23670       -0.40879        0.59667
O         -5.44479       -0.89124        0.84654
C         -5.54564       -2.24685        1.27530
C         -2.05930       -0.52746        0.45171
O         -3.18229       -1.25711        0.77133
C         -0.78705       -0.98466        0.48678
C          0.25035       -0.06854        0.11628
C          1.58904       -0.45193        0.12262
C          2.61392        0.43250       -0.23737
C          3.97745        0.04527       -0.23236
C          4.99157        0.90868       -0.58526
C          6.40851        0.52650       -0.58670
C          6.85476       -0.75984       -0.22551
C          8.18950       -1.09494       -0.23499
C          7.38454        1.47178       -0.96269
C          8.74971        1.12793       -0.97213
C          9.15466       -0.14557       -0.61163
O         10.44024       -0.57717       -0.58723
C         11.44833        0.33644       -0.95515
C          4.63838        2.25579       -0.97269
C          5.68671        3.17786       -1.34717
C          6.98142        2.80922       -1.34295
C          3.31891        2.65111       -0.98380
C          2.27033        1.77177       -0.62313
H          0.67073        3.17537       -0.92324
H         -1.71406        2.70749       -0.57854
H         -4.55527        1.64885       -0.01349
H         -6.61117       -2.42383        1.41670
H         -5.01231       -2.40032        2.21746
H         -5.15024       -2.92801        0.51681
H         -0.54954       -2.00134        0.78148
H          1.84672       -1.46765        0.41532
H          4.19790       -0.97536        0.06480
H          6.14140       -1.52090        0.07138
H          8.52223       -2.08880        0.04514
H          9.46816        1.88488       -1.26810
H         12.39176       -0.20359       -0.86722
H         11.46536        1.20699       -0.28667
H         11.32201        0.67910       -1.99035
H          5.39965        4.18588       -1.63506
H          7.75680        3.51573       -1.62775
H          3.07044        3.66871       -1.27809
