37
anti_S_S_diCl_m-CNbenz.log	Energy: -1664793.8069208
C         -2.81284       -1.75389        0.21318
C         -1.82181       -0.77431        0.13722
C         -0.44027       -1.11444        0.05409
C          0.51262       -0.13763       -0.01981
C          1.96131       -0.28076       -0.11021
C          2.71720       -1.45398       -0.14246
C          4.09747       -1.38514       -0.23150
C          2.61420        0.96253       -0.16876
C          3.99682        1.05033       -0.25825
C          4.73446       -0.13552       -0.28923
C          6.16667       -0.07303       -0.38166
N          7.32239       -0.02534       -0.45625
C          0.11791        1.24560       -0.01342
S          1.50544        2.33101       -0.11643
C         -1.18963        1.61816        0.06474
C         -2.20306        0.61458        0.14269
C         -3.55508        0.94542        0.22401
C         -4.55015       -0.03464        0.30020
C         -5.92769        0.31011        0.38291
C         -6.87726       -0.67290        0.45611
C         -8.31822       -0.54441        0.54571
Cl        -9.10606        0.98786        0.57591
C         -8.95467       -1.73355        0.60147
Cl       -10.64380       -1.99111        0.71181
C         -6.48557       -2.05467        0.44949
S         -7.88034       -3.12356        0.55167
C         -5.17631       -2.42803        0.37162
C         -4.16790       -1.42348        0.29452
H         -2.52264       -2.80205        0.20886
H         -0.16054       -2.16478        0.05052
H          2.22682       -2.42143       -0.09791
H          4.69427       -2.28998       -0.25721
H          4.50251        2.00869       -0.30362
H         -1.48151        2.66423        0.06918
H         -3.84574        1.99322        0.22841
H         -6.21884        1.35641        0.38752
H         -4.88509       -3.47437        0.36706
