54
anti_S_NPh_m-CNbenz_benz.log	Energy: -1114213.1306698
C         -3.54571        1.16823        0.01647
C         -4.57868        0.22749        0.01911
C         -5.94786        0.62694        0.02550
C         -6.93112       -0.31897        0.03011
C         -8.38320       -0.24810        0.02361
C         -9.28404        0.81273        0.02993
C        -10.64686        0.53888        0.03821
C         -8.85690       -1.57355        0.02119
C        -10.21908       -1.85922        0.04080
C        -11.10202       -0.78422        0.04697
C         -6.59121       -1.71897        0.03307
N         -7.77367       -2.45502        0.02772
C         -7.86019       -3.86831        0.02108
C         -7.24778       -4.60798        1.03324
C         -7.32544       -5.99641        1.01753
C         -8.02964       -6.64870        0.00870
C         -8.64860       -5.90697       -0.99405
C         -8.55654       -4.51922       -0.99761
C         -5.29631       -2.15111        0.01485
C         -4.25262       -1.17844        0.00989
C         -2.90703       -1.55334       -0.00450
C         -1.87565       -0.61129       -0.00809
C         -0.50584       -1.00169       -0.02260
C          0.48682       -0.06097       -0.02508
C          1.93151       -0.25920       -0.03897
C          2.64305       -1.46037       -0.05324
C          4.02779       -1.44508       -0.06505
C          2.63471        0.95838       -0.03691
C          4.02251        0.99225       -0.04862
C          4.71501       -0.22101       -0.06268
C          6.15135       -0.21382       -0.07480
N          7.31057       -0.21121       -0.08446
C          0.14534        1.33493       -0.01293
S          1.57814        2.36772       -0.01839
C         -1.15028        1.75529        0.00082
C         -2.20253        0.79036        0.00352
H         -3.79735        2.22651        0.02376
H         -6.19026        1.68642        0.02130
H         -8.92562        1.83815        0.03174
H        -11.36293        1.35428        0.04196
H        -10.58006       -2.88203        0.05709
H        -12.16991       -0.98078        0.06166
H         -6.72086       -4.08858        1.82761
H         -6.84526       -6.56909        1.80508
H         -8.09585       -7.73219        0.00401
H         -9.19456       -6.41004       -1.78624
H         -9.01512       -3.93305       -1.78799
H         -5.04704       -3.20738       -0.00095
H         -2.65469       -2.61144       -0.01348
H         -0.26533       -2.06187       -0.03183
H          2.11352       -2.40804       -0.05521
H          4.58960       -2.37243       -0.07618
H          4.56654        1.93055       -0.04703
H         -1.40283        2.81173        0.00965
