46
anti_O_O_diCF3_p-OMebenz.log	Energy: -1119524.9651548
C         -2.51942       -2.08182        0.66321
C         -1.53515       -1.13756        0.37533
C         -0.15799       -1.50934        0.27410
C          0.77238       -0.55500       -0.00939
C          2.21694       -0.54524       -0.18680
C          3.20986       -1.51172       -0.13466
C          4.53249       -1.12310       -0.36478
O          5.45260       -2.12234       -0.29768
C          6.80546       -1.79815       -0.51945
C          2.54758        0.78615       -0.46482
C          3.84547        1.19041       -0.69491
C          4.84394        0.21556       -0.64204
C          0.36788        0.80788       -0.20341
O          1.44376        1.60713       -0.47711
C         -0.91962        1.22338       -0.12062
C         -1.91868        0.24134        0.17630
C         -3.26430        0.58477        0.27905
C         -4.25652       -0.36112        0.56878
C         -5.62461        0.01936        0.66559
C         -6.55987       -0.93959        0.95478
C         -8.00076       -0.96542        1.13047
C         -8.92180        0.21055        1.06588
F         -8.37964        1.18903        0.31928
F        -10.10290       -0.10279        0.51748
F         -9.16139        0.72557        2.28019
C         -8.31432       -2.24776        1.41949
C         -9.62985       -2.93108        1.68136
F        -10.47972       -2.10490        2.29716
F        -10.19851       -3.33839        0.54031
F         -9.44917       -4.00276        2.45671
C         -6.14975       -2.28974        1.14477
O         -7.24043       -3.07283        1.42332
C         -4.86386       -2.71832        1.06289
C         -3.87141       -1.73857        0.76679
H         -2.22728       -3.11874        0.81231
H          0.12527       -2.54732        0.42482
H          2.99320       -2.55312        0.07790
H          7.35851       -2.73269       -0.41877
H          7.17580       -1.07861        0.22254
H          6.96418       -1.39238       -1.52723
H          4.08358        2.22606       -0.90903
H          5.86940        0.51629       -0.82055
H         -1.19393        2.26168       -0.27245
H         -3.55727        1.62128        0.12968
H         -5.90569        1.05494        0.51185
H         -4.59609       -3.75798        1.21589
