46
anti_C_C_2-CF3_p-CNbenz.log	Energy: -896876.4980434
C         -2.28263        1.37102        0.56422
C         -3.49895        0.69737        0.63936
C         -4.73237        1.39092        0.78753
C         -5.93763        0.73800        0.86310
C         -7.22209        1.43985        1.01713
C         -7.30902        2.83523        1.09976
C         -8.53650        3.47173        1.24527
C         -8.58497        4.90492        1.32659
N         -8.62322        6.06174        1.39218
C         -8.41951        0.69024        1.08592
C         -9.65158        1.35030        1.23293
C         -9.72332        2.72409        1.31287
C         -5.94709       -0.70900        0.78790
C         -7.20928       -1.41180        0.86518
C         -8.37484       -0.75447        1.00532
C         -4.76938       -1.40138        0.64491
C         -3.51459       -0.74155        0.56586
C         -2.31441       -1.43248        0.42152
C         -1.08665       -0.75931        0.34577
C          0.13742       -1.44812        0.20009
C          1.34224       -0.77405        0.12674
C          2.58924       -1.47067       -0.02064
C          3.75909       -0.78734       -0.09018
C          5.07159       -1.50053       -0.24288
F          4.93300       -2.83338       -0.30227
F          5.70889       -1.11111       -1.36241
F          5.89589       -1.22629        0.78496
C          1.35981        0.66809        0.19948
C          2.62796        1.34161        0.12025
C          3.78315        0.64689       -0.01884
C          0.16928        1.35554        0.34201
C         -1.06988        0.68210        0.41889
H         -2.26983        2.45716        0.61945
H         -4.68055        2.47376        0.83925
H         -6.41879        3.45100        1.05224
H        -10.56097        0.75831        1.28380
H        -10.67619        3.22924        1.42636
H         -7.19100       -2.49666        0.80632
H         -9.31371       -1.29804        1.06163
H         -4.79172       -2.48739        0.58996
H         -2.32753       -2.51856        0.36624
H          0.12624       -2.53423        0.14500
H          2.57890       -2.55433       -0.07530
H          2.64140        2.42653        0.17463
H          4.73603        1.16247       -0.07791
H          0.18062        2.44165        0.39703
