37
anti_S_O_p-CNbenz_2-F.log	Energy: -947595.7872701
C         -3.73315        0.58348       -0.73128
C         -4.74861       -0.26829       -0.28535
C         -6.12510        0.06414       -0.46577
C         -7.08629       -0.79733       -0.01466
C         -8.53571       -0.81771       -0.00921
C         -8.85119       -1.97350        0.59902
F        -10.01480       -2.50222        0.87338
C         -6.68897       -2.01304        0.62841
O         -7.80539       -2.72702        1.00088
C         -5.40431       -2.39025        0.83222
C         -4.38323       -1.50371        0.36799
C         -3.03091       -1.80857        0.53368
C         -2.02103       -0.95439        0.08637
C         -0.64235       -1.27117        0.25826
C          0.32749       -0.41845       -0.18867
C          1.77859       -0.55805       -0.11031
C          2.51727       -1.59972        0.44156
C          3.91131       -1.54145        0.41472
C          4.67810       -2.61470        0.98278
N          5.29633       -3.48130        1.44202
C          2.45198        0.53443       -0.68486
C          3.84341        0.59742       -0.71407
C          4.57135       -0.44461       -0.16211
C         -0.04812        0.80780       -0.83717
S          1.36065        1.75237       -1.33103
C         -1.35224        1.15279       -1.02358
C         -2.38270        0.27682       -0.56473
H         -4.00655        1.51405       -1.22347
H         -6.38805        0.99551       -0.95831
H         -9.22412       -0.08486       -0.39851
H         -5.15104       -3.32251        1.32518
H         -2.75627       -2.73886        1.02571
H         -0.37829       -2.20337        0.75130
H          2.02244       -2.45454        0.89110
H          4.35353        1.44476       -1.15986
H          5.65554       -0.41904       -0.17263
H         -1.62807        2.08147       -1.51473
