52
anti_C_S_p-OMebenz_m-CF3benz.log	Energy: -1208535.1913036
C         -2.81916       -0.97881        0.68611
C         -1.68203       -0.50357        0.03444
C         -0.37856       -0.66132        0.59184
C          0.72172       -0.18774       -0.06451
C          2.12357       -0.25119        0.33609
C          2.67424       -0.81037        1.49086
C          4.04406       -0.76758        1.69220
C          2.97314        0.34860       -0.60624
C          4.34965        0.39684       -0.41521
C          4.87489       -0.16573        0.74125
C          6.36244       -0.17883        0.96781
F          6.88417       -1.39568        0.72956
F          7.00564        0.69092        0.17281
F          6.66979        0.13245        2.23912
C          0.56434        0.47732       -1.33095
S          2.11167        1.00538       -1.99694
C         -0.65877        0.65148       -1.90285
C         -1.82490        0.16458       -1.23544
C         -3.09800        0.31891       -1.78071
C         -4.24012       -0.15821       -1.12669
C         -5.53848       -0.00409       -1.67676
C         -6.66737       -0.46916       -1.04227
C         -8.01946       -0.31457       -1.60400
C         -8.25513        0.31803       -2.82756
C         -9.54039        0.45305       -3.33940
O         -9.63169        1.08668       -4.53624
C        -10.91080        1.25350       -5.10503
C         -9.12519       -0.82422       -0.88128
C        -10.41209       -0.67844       -1.41322
C        -10.63599       -0.05058       -2.62549
C         -6.51746       -1.13831        0.23118
C         -7.69187       -1.63491        0.91544
C         -8.92106       -1.48560        0.38887
C         -5.26558       -1.29772        0.78149
C         -4.09706       -0.82336        0.13776
H         -2.71125       -1.48281        1.64403
H         -0.27894       -1.16626        1.54936
H          2.03179       -1.27580        2.23208
H          4.47659       -1.19581        2.58995
H          5.00105        0.86402       -1.14494
H         -0.77046        1.15420       -2.85919
H         -3.20778        0.82252       -2.73856
H         -5.61136        0.50308       -2.63343
H         -7.44798        0.72690       -3.42394
H        -10.75357        1.77796       -6.04817
H        -11.56338        1.85713       -4.46119
H        -11.39263        0.28786       -5.30540
H        -11.25784       -1.07132       -0.85466
H        -11.64754        0.04206       -3.00286
H         -7.55260       -2.13385        1.87055
H         -9.79533       -1.86314        0.91300
H         -5.16569       -1.80269        1.73981
