41
anti_C_C_2-CF3_diCN.log	Energy: -858348.9354581
C         -2.83505        0.15455       -0.77219
C         -3.90086       -0.05130        0.10861
C         -5.23615        0.22736       -0.26436
C         -6.28322        0.02118        0.61105
C         -7.65585        0.29952        0.25027
C         -7.93471        0.80646       -1.06094
N         -8.11703        1.21504       -2.13022
C         -8.67522        0.08281        1.14615
C        -10.03730        0.35811        0.79085
N        -11.14835        0.56934        0.53816
C         -6.02053       -0.48961        1.93801
C         -7.12502       -0.69675        2.83227
C         -8.39980       -0.42504        2.46076
C         -4.72166       -0.76551        2.31443
C         -3.63410       -0.56161        1.43383
C         -2.31556       -0.83774        1.80561
C         -1.24978       -0.63191        0.92523
C          0.08868       -0.90826        1.29208
C          1.13440       -0.70225        0.41539
C          2.49498       -0.98205        0.78483
C          3.50606       -0.77259       -0.09339
C          4.93308       -1.06208        0.27582
F          5.06037       -1.51581        1.53125
F          5.46733       -1.98531       -0.54387
F          5.69498        0.04109        0.16502
C          0.86833       -0.19249       -0.91180
C          1.98070        0.01059       -1.80242
C          3.24808       -0.26661       -1.41409
C         -0.43084        0.08289       -1.28587
C         -1.51654       -0.12172       -0.40096
H         -3.03792        0.53845       -1.76892
H         -5.43144        0.61107       -1.26204
H         -6.91828       -1.08085        3.82695
H         -9.23045       -0.58286        3.13893
H         -4.52494       -1.14956        3.31240
H         -2.11410       -1.22168        2.80279
H          0.29110       -1.29177        2.28928
H          2.69787       -1.36411        1.77988
H          1.78124        0.39338       -2.79920
H          4.08143       -0.11085       -2.09115
H         -0.63326        0.46642       -2.28300
