47
anti_S_O_diOMe_p-CF3benz.log	Energy: -1182601.6244152
C         -2.10641       -2.19829        0.81485
C         -1.22990       -1.20919        0.36292
C          0.16216       -1.47633        0.18834
C          0.98262       -0.48136       -0.25606
C          2.40307       -0.36567       -0.54816
C          3.48933       -1.23017       -0.49308
C          4.73848       -0.74498       -0.86932
C          5.94987       -1.62940       -0.77153
F          5.62424       -2.93301       -0.76488
F          6.79549       -1.43043       -1.79825
F          6.64806       -1.39310        0.35497
C          2.59079        0.95469       -0.97455
C          3.82557        1.45551       -1.35248
C          4.90309        0.58017       -1.29236
C          0.44356        0.81311       -0.54123
O          1.42822        1.66955       -0.97486
C         -0.86581        1.13098       -0.39652
C         -1.74947        0.10550        0.06857
C         -3.11196        0.34686        0.24646
C         -3.98888       -0.64296        0.70089
C         -5.37805       -0.38883        0.88213
C         -6.20635       -1.38119        1.33296
C         -7.62988       -1.31251        1.59189
O         -8.33792       -0.15127        1.42532
C         -8.26357        0.71096        2.55291
C         -8.14602       -2.49548        2.01315
O         -9.38627       -2.86483        2.34786
C        -10.46909       -2.07452        1.86596
C         -5.67863       -2.68747        1.60937
S         -6.94741       -3.79030        2.13456
C         -4.35678       -2.97474        1.44995
C         -3.46932       -1.95434        0.99217
H         -1.71403       -3.18879        1.03479
H          0.54577       -2.46800        0.41199
H          3.37026       -2.25850       -0.17044
H          3.93932        2.48148       -1.68230
H          5.88884        0.92627       -1.58426
H         -1.24027        2.12349       -0.62261
H         -3.50552        1.33621        0.02469
H         -5.77994        0.59383        0.65075
H         -8.74773        0.25642        3.42715
H         -8.78868        1.62794        2.27871
H         -7.22264        0.94502        2.80606
H        -11.36497       -2.66599        2.05662
H        -10.36129       -1.88372        0.79463
H        -10.53321       -1.12175        2.39817
H         -3.96238       -3.96525        1.65892
