45
anti_O_NPh_2-OMe_diCl.log	Energy: -1309522.4073855
C          0.67218        0.20939       -1.77593
C          2.03242        0.27724       -1.44502
C          3.02732        0.47514       -2.43955
C          4.34527        0.53165       -2.06961
C          5.57507        0.72125       -2.79344
Cl         5.71810        0.92973       -4.49434
C          6.59027        0.69199       -1.89060
Cl         8.26853        0.82415       -2.19121
C          4.71654        0.39025       -0.69017
N          6.10333        0.49478       -0.60464
C          6.85620        0.39323        0.59651
C          7.59394        1.48184        1.05657
C          8.31722        1.36922        2.23903
C          8.28513        0.18456        2.97005
C          7.53429       -0.89532        2.51256
C          6.82509       -0.79755        1.32038
C          3.79292        0.20878        0.30136
C          2.41817        0.14524       -0.06010
C          1.41971       -0.04373        0.90326
C          0.06633       -0.11058        0.57349
C         -0.93557       -0.30472        1.57553
C         -2.25209       -0.36559        1.21086
C         -3.50974       -0.54408        1.89829
C         -4.45662       -0.50612        0.93275
O         -5.77129       -0.62114        1.04886
C         -6.55316       -0.55953       -0.14137
C         -2.59290       -0.23191       -0.17498
O         -3.95930       -0.32150       -0.32396
C         -1.70194       -0.04642       -1.17494
C         -0.31643        0.02033       -0.81503
H          0.38223        0.30857       -2.81976
H          2.73758        0.58257       -3.48092
H          7.59426        2.40650        0.48866
H          8.89802        2.21432        2.59503
H          8.84446        0.10328        3.89689
H          7.50873       -1.82132        3.07846
H          6.24754       -1.63520        0.94219
H          4.08683        0.11556        1.34222
H          1.71094       -0.14168        1.94687
H         -0.63349       -0.40105        2.61436
H         -3.68568       -0.68068        2.95335
H         -7.58490       -0.67827        0.18741
H         -6.28398       -1.36607       -0.82894
H         -6.42833        0.40426       -0.64250
H         -2.01107        0.04936       -2.21042
