55
anti_S_NPh_3-OMe_p-OMebenz.log	Energy: -1103646.9066966
C         -2.50160       -2.13690        0.38603
C         -1.52337       -1.14581        0.29841
C         -0.15106       -1.47084        0.07748
C          0.77842       -0.47647        0.00017
C          2.21600       -0.47419       -0.22575
C          3.13901       -1.49066       -0.41646
C          4.48398       -1.15963       -0.59109
O          5.32832       -2.21316       -0.77778
C          6.69827       -1.94031       -0.94709
C          2.62870        0.87200       -0.21236
C          3.96413        1.20747       -0.37134
C          4.88924        0.18048       -0.56392
C          0.38436        0.90258        0.14481
N          1.51997        1.69870        0.01321
C          1.54790        3.10994        0.08530
C          1.02741        3.76264        1.20405
C          1.04697        5.15167        1.26652
C          1.60413        5.89422        0.22863
C          2.13290        5.24057       -0.88128
C          2.09617        3.85266       -0.96166
C         -0.91667        1.26435        0.34315
C         -1.90783        0.23984        0.42809
C         -3.25388        0.54355        0.63495
C         -4.23571       -0.44900        0.72211
C         -5.60565       -0.12847        0.93363
C         -6.53714       -1.12777        1.01410
C         -7.96975       -1.00954        1.22380
O         -8.48546        0.22981        1.36162
C         -9.88030        0.29908        1.56096
C         -8.61032       -2.19941        1.25274
C         -6.14583       -2.50056        0.88682
S         -7.53392       -3.57351        1.02801
C         -4.84228       -2.85067        0.68299
C         -3.84957       -1.83140        0.59486
H         -2.20554       -3.17922        0.28775
H          0.13530       -2.51364       -0.03261
H          2.84665       -2.53562       -0.42978
H          7.18480       -2.90794       -1.07738
H          7.12397       -1.43905       -0.06742
H          6.88214       -1.32262       -1.83650
H          4.29477        2.24021       -0.34159
H          5.93292        0.44401       -0.68941
H          0.61704        3.17511        2.01933
H          0.63741        5.65429        2.13751
H          1.62567        6.97815        0.28434
H          2.56314        5.81319       -1.69737
H          2.48163        3.33635       -1.83541
H         -1.21340        2.30465        0.43099
H         -3.55113        1.58547        0.73164
H         -5.90878        0.90986        1.03059
H        -10.12794        1.35715        1.64934
H        -10.17220       -0.22552        2.48018
H        -10.42060       -0.13586        0.70992
H         -9.66604       -2.38179        1.39334
H         -4.54380       -3.89077        0.58601
