62
anti_C_NPh_p-CF3benz_m-CF3benz.log	Energy: -1277943.9734714
C         -2.73888       -1.83550       -0.02003
C         -1.69067       -0.91683       -0.04533
C         -0.36478       -1.29145        0.32850
C          0.63585       -0.36598        0.29408
C          2.05750       -0.42391        0.59289
C          2.89849       -1.44043        1.03294
C          4.24352       -1.16367        1.23892
C          2.57536        0.86437        0.35819
C          3.91693        1.15938        0.57026
C          4.73766        0.12541        1.00987
C          6.18434        0.41321        1.30888
F          6.97476       -0.62881        0.99857
F          6.63953        1.47886        0.62787
F          6.37570        0.67153        2.61547
C          0.36071        0.98833       -0.11463
N          1.55314        1.70921       -0.06735
C          1.69939        3.08080       -0.39308
C          0.94146        4.03918        0.27985
C          1.08183        5.38331       -0.04795
C          1.99035        5.77545       -1.02782
C          2.75244        4.81662       -1.68990
C          2.60137        3.46823       -1.38391
C         -0.88588        1.39365       -0.49174
C         -1.95106        0.44279       -0.46351
C         -3.24923        0.79439       -0.83296
C         -4.30092       -0.12879       -0.80780
C         -5.62137        0.22839       -1.18282
C         -6.66230       -0.67224       -1.16044
C         -8.03599       -0.31870       -1.54552
C         -8.38975        0.97327       -1.96858
C         -9.68878        1.27799       -2.32389
C        -10.06133        2.66047       -2.78124
F         -9.02178        3.51032       -2.75735
F        -10.53904        2.64848       -4.03922
F        -11.02806        3.18858       -2.00836
C         -9.04643       -1.30411       -1.49279
C        -10.36366       -0.97304       -1.85911
C        -10.69048        0.29973       -2.27076
C         -6.39228       -2.02801       -0.73870
C         -7.47296       -2.98774       -0.70815
C         -8.72603       -2.64814       -1.06337
C         -5.11716       -2.39523       -0.37100
C         -4.03973       -1.47776       -0.39020
H         -2.54023       -2.85761        0.29511
H         -0.17056       -2.31665        0.63270
H          2.51043       -2.43828        1.21314
H          4.91650       -1.94463        1.57422
H          4.31284        2.15372        0.40067
H          0.25294        3.72423        1.05778
H          0.48885        6.12740        0.47481
H          2.10426        6.82631       -1.27473
H          3.45903        5.11615       -2.45765
H          3.17330        2.71093       -1.91126
H         -1.08250        2.41119       -0.81404
H         -3.45006        1.81540       -1.14985
H         -5.78303        1.25577       -1.49321
H         -7.64444        1.75657       -2.02288
H        -11.12989       -1.74197       -1.81272
H        -11.70928        0.54685       -2.55093
H         -7.24479       -4.00075       -0.38751
H         -9.52788       -3.38075       -1.03493
H         -4.92738       -3.41899       -0.05574
