37
anti_O_O_2-OMe_3-CF3.log	Energy: -811704.7444487
C          1.38543       -0.87796        0.01905
C          2.52426       -0.06450       -0.00213
C          3.83355       -0.62669        0.00833
C          4.91291        0.21267       -0.01333
C          6.35324        0.04835       -0.01263
C          7.10330       -1.23042        0.01884
F          6.81518       -1.94613        1.12067
F          6.79748       -2.00940       -1.03425
F          8.43074       -1.02438        0.00212
C          6.87815        1.28882       -0.04318
C          4.71746        1.62411       -0.04638
O          5.93401        2.26273       -0.06434
C          3.49847        2.22149       -0.05782
C          2.35277        1.36905       -0.03524
C          1.05756        1.89469       -0.04465
C         -0.07839        1.08312       -0.02340
C         -1.39282        1.64385       -0.03364
C         -2.48017        0.81379       -0.01244
C         -3.91356        0.98582       -0.01355
C         -4.42647       -0.26615        0.01606
O         -5.69412       -0.64789        0.02699
C         -5.96983       -2.04633        0.06176
C         -2.26768       -0.60286        0.01970
O         -3.48199       -1.25045        0.03684
C         -1.05522       -1.20230        0.03121
C          0.09605       -0.35091        0.00939
H          1.51385       -1.95783        0.04386
H          3.95798       -1.70487        0.03307
H          7.90254        1.62945       -0.05350
H          3.38892        3.30028       -0.08310
H          0.93013        2.97462       -0.06948
H         -1.50830        2.72345       -0.05827
H         -4.48066        1.90273       -0.03338
H         -7.05636       -2.12358        0.06613
H         -5.55793       -2.50390        0.96536
H         -5.56205       -2.54746       -0.82033
H         -0.94728       -2.28145        0.05586
