50
anti_C_NPh_diCF3_2-F.log	Energy: -1147412.2628452
C          0.71085        2.00212        0.92333
C         -0.38368        1.17571        0.68720
C         -1.71520        1.60235        0.97672
C         -2.76819        0.76480        0.73601
C         -4.19748        0.89465        0.90041
C         -4.71526       -0.27626        0.47093
F         -5.97794       -0.65506        0.42880
C         -2.52122       -0.55224        0.18910
N         -3.75999       -1.17586        0.03445
C         -3.99823       -2.49978       -0.41725
C         -3.32081       -3.56287        0.17939
C         -3.53893       -4.85861       -0.27534
C         -4.44575       -5.09754       -1.30451
C         -5.12949       -4.03323       -1.88599
C         -4.90079       -2.73160       -1.45385
C         -1.27439       -1.00455       -0.11794
C         -0.16036       -0.14449        0.12909
C          1.13924       -0.54852       -0.15633
C          2.24423        0.28471        0.08190
C          3.55804       -0.13561       -0.20912
C          4.66196        0.67588        0.02101
C          6.03338        0.27558       -0.26592
C          6.20521       -1.12914       -0.82104
F          5.54497       -1.26036       -1.98864
F          7.46126       -1.50366       -1.05166
F          5.68948       -2.03718        0.03140
C          7.06872        1.14608       -0.03046
C          8.53872        0.84865       -0.30857
F          9.00310       -0.16528        0.43359
F          8.76621        0.57529       -1.60010
F          9.30998        1.91233       -0.01173
C          4.42713        1.99076        0.57209
C          5.54643        2.84580        0.80596
C          6.80589        2.44634        0.51542
C          3.14178        2.41380        0.86384
C          2.02195        1.59350        0.63588
H          0.54714        2.99286        1.34126
H         -1.87500        2.59711        1.38294
H         -4.75064        1.73704        1.28463
H         -2.63452       -3.36889        0.99760
H         -3.00759       -5.68473        0.18686
H         -4.61967       -6.11099       -1.65218
H         -5.83646       -4.21330       -2.68980
H         -5.41448       -1.89583       -1.91665
H         -1.11083       -1.98840       -0.54595
H          1.30759       -1.53775       -0.57583
H          3.67204       -1.12707       -0.62528
H          5.36909        3.83365        1.22181
H          7.63881        3.11130        0.69539
H          2.99419        3.40833        1.27843
