41
anti_S_O_2-OMe_m-CNbenz.log	Energy: -957184.3753297
C         -2.65840       -1.94704       -0.10067
C         -1.62706       -1.01814        0.06068
C         -0.28580       -1.32854       -0.31522
C          0.69090       -0.39119       -0.14012
C          2.12153       -0.33434       -0.39128
C          3.06540       -1.21549       -0.91122
C          4.38737       -0.80085       -1.00362
C          2.52140        0.94316        0.02505
C          3.82658        1.38662       -0.05308
C          4.76089        0.48561       -0.57884
C          6.13619        0.88714       -0.68641
N          7.24666        1.20786       -0.77458
C          0.36303        0.88596        0.41514
O          1.48000        1.68181        0.50876
C         -0.88938        1.24197        0.79172
C         -1.93284        0.27791        0.61916
C         -3.25042        0.56160        0.98042
C         -4.28191       -0.36831        0.81883
C         -5.62426       -0.07085        1.19032
C         -6.61817       -0.99910        1.02244
C         -8.02571       -0.88970        1.33405
C         -8.70580       -2.01923        1.02872
O         -9.99918       -2.32331        1.15934
C        -10.82011       -1.30632        1.70928
C         -6.29073       -2.28701        0.46301
S         -7.71833       -3.31109        0.34159
C         -5.02201       -2.61528        0.09358
C         -3.97472       -1.65986        0.26178
H         -2.42694       -2.92315       -0.52150
H         -0.06319       -2.30582       -0.73472
H          2.77748       -2.20894       -1.23932
H          5.14445       -1.46546       -1.40440
H          4.11416        2.37838        0.27448
H         -1.10276        2.21975        1.20971
H         -3.48265        1.53721        1.40122
H         -5.85042        0.90574        1.61031
H         -8.47150       -0.00127        1.76200
H        -11.82779       -1.71879        1.74496
H        -10.80476       -0.41218        1.07522
H        -10.48718       -1.04569        2.72072
H         -4.78732       -3.58908       -0.32691
