38
anti_S_O_benz_diCN.log	Energy: -943196.1593470
C         -3.81240        0.29816       -1.25801
C         -4.85455       -0.27565       -0.51853
C         -6.21405       -0.05988       -0.87861
C         -7.19229       -0.64446       -0.12129
C         -8.64110       -0.66466       -0.16119
C         -9.48061       -0.00973       -1.09993
N        -10.13438        0.53903       -1.88395
C         -9.03234       -1.44150        0.88728
C        -10.33998       -1.79851        1.31617
N        -11.41252       -2.07957        1.65152
C         -6.84961       -1.44971        1.00101
O         -7.98840       -1.92712        1.60344
C         -5.57399       -1.69397        1.39634
C         -4.53123       -1.09789        0.62628
C         -3.18641       -1.29303        0.95745
C         -2.15361       -0.71917        0.21749
C         -0.78415       -0.92283        0.56158
C          0.21158       -0.35085       -0.17754
C          1.65679       -0.43793        0.01007
C          2.36462       -1.13008        0.99420
C          3.75188       -1.08774        1.00131
C          2.36344        0.29135       -0.95854
C          3.75418        0.33879       -0.95825
C          4.44119       -0.35686        0.02971
C         -0.12529        0.46588       -1.31546
S          1.30870        1.10084       -2.12026
C         -1.41738        0.68862       -1.68210
C         -2.47538        0.10006       -0.92314
H         -4.05774        0.91612       -2.11840
H         -6.45879        0.55726       -1.73782
H         -5.34894       -2.31311        2.25754
H         -2.94030       -1.91076        1.81782
H         -0.54935       -1.54202        1.42340
H          1.83155       -1.69888        1.75063
H          4.30427       -1.62503        1.76547
H          4.29210        0.90550       -1.71150
H          5.52636       -0.33008        0.04405
H         -1.66443        1.30553       -2.54114
