53
anti_NPh_NPh_3-F_3-CN.log	Energy: -913494.9701536
C          0.71131       -0.67112       -0.41969
C         -0.68149       -0.73399       -0.33091
C         -1.45873       -1.39567       -1.32376
C         -2.81957       -1.43122       -1.19688
C         -3.88151       -2.02227       -1.99040
C         -3.73114       -2.74368       -3.20150
N         -3.58271       -3.33243       -4.19098
C         -5.05899       -1.74407       -1.35595
C         -3.46235       -0.80224       -0.07725
N         -4.83899       -1.01318       -0.21650
C         -5.85440       -0.56945        0.66850
C         -6.81479       -1.47140        1.12386
C         -7.82695       -1.02997        1.96954
C         -7.86941        0.29987        2.37853
C         -6.90114        1.19371        1.92804
C         -5.89790        0.76707        1.06517
C         -2.76097       -0.17154        0.90963
C         -1.34042       -0.12046        0.80060
C         -0.56086        0.51435        1.76918
C          0.83311        0.57751        1.68049
C          1.61072        1.24007        2.66930
C          2.97305        1.27241        2.53943
C          4.03161        1.86012        3.31185
F          3.84913        2.53645        4.44813
C          5.21475        1.60154        2.71332
C          3.62580        0.63806        1.42280
N          4.99444        0.84594        1.56061
C          6.01154        0.41813        0.67900
C          6.03115       -0.89781        0.21272
C          7.03853       -1.30837       -0.65319
C          8.04209       -0.42339       -1.03828
C          8.02863        0.88307       -0.55769
C          7.01196        1.31002        0.28937
C          2.91195        0.01087        0.43826
C          1.49294       -0.03652        0.54959
H          1.20309       -1.13408       -1.27232
H         -0.96541       -1.87130       -2.16682
H         -6.06735       -1.99871       -1.65122
H         -6.75593       -2.51429        0.82726
H         -8.57530       -1.73334        2.32101
H         -8.65474        0.63916        3.04646
H         -6.93367        2.23391        2.23677
H         -5.15815        1.46415        0.68500
H         -3.25214        0.27790        1.76677
H         -1.05307        0.97725        2.62180
H          1.12012        1.72046        3.51059
H          6.21699        1.85892        3.02099
H          5.27008       -1.59587        0.54575
H          7.04699       -2.33236       -1.01402
H          8.83102       -0.75060       -1.70804
H          8.80447        1.58172       -0.85564
H          6.97921        2.33780        0.63818
H          3.39608       -0.43859       -0.42251
