49
anti_C_O_tetClbenz_p-OMebenz.log	Energy: -1947962.1965196
C         -2.84626       -1.80000       -0.02279
C         -1.75868       -0.94591       -0.20056
C         -0.42638       -1.36897        0.10116
C          0.60851       -0.50201       -0.08388
C          2.05050       -0.56408        0.10337
C          2.93318       -1.53754        0.54608
C          4.29583       -1.23075        0.59469
O          5.10225       -2.23196        1.03847
C          6.48783       -1.98826        1.11135
C          2.52901        0.69337       -0.28276
C          3.86872        1.01635       -0.24261
C          4.75592        0.03460        0.20345
C          0.35735        0.82165       -0.57685
O          1.51961        1.53320       -0.69300
C         -0.88067        1.28289       -0.88089
C         -1.98732        0.39391       -0.69607
C         -3.29115        0.79127       -0.98723
C         -4.37994       -0.07198       -0.81728
C         -5.70161        0.33171       -1.14077
C         -6.78737       -0.50724       -1.00749
C         -8.17390       -0.13234       -1.36103
C         -8.53311        0.90786       -2.25163
Cl        -7.37184        1.65908       -3.31230
C         -9.85975        1.31519       -2.40035
Cl       -10.27079        2.62439       -3.45432
C         -9.23268       -0.88542       -0.78523
C        -10.56623       -0.45834       -0.94017
Cl       -11.85031       -1.33489       -0.15913
C        -10.88437        0.65442       -1.70505
Cl       -12.51955        1.19460       -1.84595
C         -6.55698       -1.79736       -0.39405
C         -7.68739       -2.59178        0.01203
C         -8.94334       -2.13051       -0.10249
C         -5.28109       -2.21834       -0.09662
C         -4.15221       -1.39527       -0.31737
H         -2.67528       -2.80443        0.35790
H         -0.25991       -2.37604        0.47323
H          2.60093       -2.52324        0.85373
H          6.93540       -2.90947        1.48610
H          6.71833       -1.16802        1.80384
H          6.91036       -1.75781        0.12452
H          4.22171        1.99543       -0.54580
H          5.81242        0.27172        0.24116
H         -1.03770        2.28963       -1.25258
H         -3.46643        1.79558       -1.36568
H         -5.82396        1.34823       -1.48383
H         -7.49853       -3.55559        0.47626
H         -9.77392       -2.71547        0.26929
H         -5.13910       -3.19336        0.36384
