45
anti_S_O_tetClbenz_p-CF3benz.log	Energy: -2288862.4308410
C         -3.53631        1.19941       -0.00488
C         -4.59659        0.28967       -0.00508
C         -5.95394        0.73474       -0.00647
C         -6.95843       -0.18801       -0.00654
C         -8.41212       -0.13269       -0.00774
C         -9.35465        0.88972       -0.00936
C        -10.70065        0.54234       -0.00996
C        -11.76765        1.60130       -0.01366
F        -11.25480        2.84188       -0.00432
F        -12.55667        1.50124       -1.09883
F        -12.57365        1.49175        1.05800
C         -8.83666       -1.46568       -0.00690
C        -10.17331       -1.83145       -0.00745
C        -11.10327       -0.80060       -0.00900
C         -6.64619       -1.58496       -0.00519
O         -7.79088       -2.34350       -0.00538
C         -5.38153       -2.07199       -0.00392
C         -4.30868       -1.12551       -0.00386
C         -2.97685       -1.54127       -0.00261
C         -1.91862       -0.62839       -0.00246
C         -0.56498       -1.07272       -0.00121
C          0.47274       -0.17614       -0.00103
C          1.92727       -0.38991        0.00015
C          2.68437       -1.56930        0.00125
Cl         1.91350       -3.12368        0.00138
C          4.08373       -1.52168        0.00226
Cl         5.00481       -2.98553        0.00359
C          2.62464        0.83307        0.00004
C          4.01318        0.89457        0.00106
Cl         4.78637        2.44320        0.00089
C          4.75221       -0.28738        0.00218
Cl         6.47715       -0.22549        0.00347
C          0.15977        1.23021       -0.00206
S          1.59375        2.24862       -0.00150
C         -1.11893        1.69892       -0.00331
C         -2.20609        0.77787       -0.00358
H         -3.75477        2.26477       -0.00577
H         -6.16478        1.80040       -0.00743
H         -9.05268        1.93078       -0.01004
H        -10.47209       -2.87302       -0.00663
H        -12.16237       -1.03715       -0.00932
H         -5.18008       -3.13760       -0.00297
H         -2.75564       -2.60593       -0.00173
H         -0.38521       -2.13845       -0.00042
H         -1.32620        2.76515       -0.00408
