49
anti_C_O_diCF3_p-OMebenz.log	Energy: -1120907.1734411
C         -2.47627       -2.16079        0.15017
C         -1.49221       -1.18248        0.19136
C         -0.11831       -1.49976       -0.06587
C          0.81585       -0.51216       -0.01570
C          2.25687       -0.44701       -0.21086
C          3.23792       -1.37478       -0.52538
C          4.56086       -0.93678       -0.63371
O          5.46901       -1.90009       -0.94429
C          6.82127       -1.52521       -1.06946
C          2.59880        0.89508       -0.00916
C          3.89676        1.34790       -0.11116
C          4.88368        0.41189       -0.42799
C          0.42408        0.83671        0.29285
O          1.50549        1.67397        0.29368
C         -0.85399        1.20377        0.54558
C         -1.86393        0.18561        0.50077
C         -3.19704        0.48118        0.74827
C         -4.19742       -0.50750        0.70770
C         -5.54735       -0.19590        0.96090
C         -6.54825       -1.16060        0.92483
C         -7.95372       -0.87604        1.18110
C         -8.28330        0.57292        1.50331
F         -7.91316        1.37692        0.48703
F         -9.56775        0.82845        1.73825
F         -7.60713        0.97670        2.59692
C         -8.88199       -1.88645        1.12405
C        -10.37764       -1.71225        1.37056
F        -10.64120       -1.27695        2.60934
F        -10.94341       -0.87591        0.49073
F        -11.02635       -2.88543        1.24101
C         -6.16410       -2.51727        0.61495
C         -7.17451       -3.52428        0.57136
C         -8.47162       -3.22464        0.81370
C         -4.83894       -2.83485        0.36443
C         -3.82662       -1.86145        0.40083
H         -2.19788       -3.18623       -0.08190
H          0.15478       -2.52554       -0.29705
H          3.01205       -2.42307       -0.68888
H          7.36395       -2.43774       -1.31865
H          7.21605       -1.11627       -0.13012
H          6.96439       -0.79014       -1.87233
H          4.14379        2.39128        0.04836
H          5.90912        0.75138       -0.51182
H         -1.11734        2.23040        0.77546
H         -3.48008        1.50499        0.98056
H         -5.77549        0.83638        1.18686
H         -6.88375       -4.54468        0.33818
H         -9.22264       -4.00108        0.77569
H         -4.57690       -3.86470        0.13349
