41
anti_S_NPh_2-Cl_C.log	Energy: -1151963.5129572
C          0.52098        0.21971        1.86640
C          1.89153        0.27216        1.58625
C          2.86128        0.30197        2.62562
C          4.19545        0.35120        2.31391
C          5.40164        0.41453        3.10475
C          6.44053        0.46185        2.23683
C          4.60703        0.36250        0.93254
N          5.99703        0.42467        0.92056
C          6.83573        0.45700       -0.21672
C          6.65121       -0.45946       -1.25354
C          7.48663       -0.42226       -2.36428
C          8.52023        0.50792       -2.43839
C          8.71004        1.41080       -1.39596
C          7.86505        1.39622       -0.29155
C          3.71040        0.35557       -0.10070
C          2.32176        0.30640        0.20731
C          1.35259        0.29082       -0.80159
C         -0.01286        0.24013       -0.51860
C         -0.99282        0.22421       -1.55267
C         -2.32673        0.17287       -1.24661
C         -3.46222        0.14904       -2.14384
C         -4.63135        0.09683       -1.48079
Cl        -6.20198        0.05434       -2.18934
C         -2.73766        0.13478        0.13406
S         -4.49371        0.07134        0.27320
C         -1.83663        0.14855        1.15576
C         -0.44109        0.20211        0.85803
H          0.19844        0.19320        2.90510
H          2.53062        0.29427        3.66083
H          5.46934        0.41315        4.18274
H          7.50375        0.49280        2.43212
H          5.86737       -1.20574       -1.17508
H          7.33783       -1.13664       -3.16826
H          9.17483        0.52844       -3.30396
H          9.51024        2.14281       -1.44739
H          7.98781        2.12050        0.50805
H          4.02879        0.39638       -1.13749
H          1.67434        0.31898       -1.84050
H         -0.66759        0.25350       -2.58944
H         -3.38328        0.17061       -3.22366
H         -2.15468        0.11988        2.19409
