49
anti_S_NPh_2-CN_p-CNbenz.log	Energy: -1075685.8373677
C         -2.80538       -1.83851        0.18278
C         -1.76944       -0.90564        0.13265
C         -0.40464       -1.31671        0.05547
C          0.58208       -0.37703        0.01037
C          2.03164       -0.45445       -0.07906
C          2.92002       -1.51636       -0.13481
C          4.28992       -1.24239       -0.20335
C          5.23055       -2.32366       -0.26462
N          5.99059       -3.19817       -0.31459
C          2.51176        0.87238       -0.09658
C          3.87581        1.15474       -0.15397
C          4.75537        0.08495       -0.20878
C          0.25366        1.02456        0.04366
N          1.44297        1.75333       -0.02375
C          1.53897        3.16903       -0.01437
C          1.03210        3.89057        1.06595
C          1.12031        5.27848        1.06814
C          1.72930        5.94402        0.00717
C          2.24166        5.21857       -1.06516
C          2.13833        3.83159       -1.08490
C         -1.03330        1.46936        0.10654
C         -2.08502        0.50389        0.15506
C         -3.42325        0.88953        0.22363
C         -4.46370       -0.04555        0.27314
C         -5.82408        0.35704        0.34314
C         -6.82350       -0.58314        0.39164
C         -8.24846       -0.37868        0.46463
C         -8.94376       -1.54067        0.49737
C        -10.35960       -1.66056        0.56937
N        -11.51351       -1.76138        0.62806
C         -6.49150       -1.98242        0.37123
S         -7.93372       -2.98478        0.44218
C         -5.19744       -2.41174        0.30403
C         -4.14656       -1.45126        0.25301
H         -2.56196       -2.89843        0.16601
H         -0.17192       -2.37788        0.02969
H          2.56981       -2.54337       -0.12322
H          4.24019        2.17594       -0.15105
H          5.82360        0.26800       -0.25452
H          0.57801        3.35890        1.89640
H          0.72344        5.83994        1.90817
H          1.80408        7.02684        0.01599
H          2.71231        5.73342       -1.89688
H          2.51278        3.25701       -1.92659
H         -1.27239        2.52799        0.11633
H         -3.66754        1.94922        0.23897
H         -6.06501        1.41667        0.35792
H         -8.72003        0.59630        0.49103
H         -4.94984       -3.46911        0.28852
