44
anti_S_NPh_3-Cl_3-CF3.log	Energy: -1363409.8991503
C          0.75852       -1.43722        1.53987
C         -0.62636       -1.36663        1.35369
C         -1.51511       -2.19708        2.09068
C         -2.86401       -2.09337        1.87984
C         -4.01439       -2.77899        2.42270
C         -3.99693       -3.83567        3.45913
F         -3.26269       -4.89988        3.07859
F         -3.45536       -3.40053        4.61355
F         -5.23639       -4.27825        3.73604
C         -5.11595       -2.26290        1.82102
C         -3.37751       -1.14843        0.92569
N         -4.76722       -1.27843        0.92224
C         -5.68403       -0.54661        0.12714
C         -5.61396        0.84599        0.08270
C         -6.52144        1.55476       -0.69657
C         -7.50964        0.88365       -1.41232
C         -7.58286       -0.50519       -1.35356
C         -6.66555       -1.22438       -0.59483
C         -2.56215       -0.34364        0.18074
C         -1.15577       -0.43470        0.38425
C         -0.26526        0.36415       -0.33955
C          1.11593        0.29070       -0.15234
C          2.01356        1.10950       -0.89472
C          3.36201        1.01289       -0.68603
C          4.44939        1.73544       -1.31693
Cl         4.16868        2.93488       -2.53754
C          5.67226        1.39297       -0.87342
C          3.87859        0.08509        0.28307
S          5.63754        0.15390        0.36074
C          3.05446       -0.71728        1.01507
C          1.64364       -0.63742        0.81752
H          1.15460       -2.13906        2.27028
H         -1.11587       -2.90939        2.80618
H         -6.15721       -2.50587        1.97927
H         -4.86203        1.36436        0.66888
H         -6.46433        2.63829       -0.73087
H         -8.22052        1.44154       -2.01350
H         -8.34752       -1.03548       -1.91251
H         -6.69628       -2.30953       -0.57089
H         -2.95533        0.34703       -0.55818
H         -0.66064        1.06501       -1.07135
H          1.61933        1.80929       -1.62619
H          6.61781        1.80139       -1.20278
H          3.44830       -1.41741        1.74628
