42
anti_C_C_3-CF3_3-CF3.log	Energy: -954070.4744679
C         -0.00244       -1.40762       -0.04002
C         -1.22420       -0.72931       -0.01792
C         -2.45836       -1.42208       -0.01683
C         -3.66772       -0.75413        0.00491
C         -4.95551       -1.42062        0.00673
C         -5.01973       -2.92452       -0.01606
F         -4.40015       -3.46788        1.04995
F         -6.28071       -3.38246       -0.01067
F         -4.42155       -3.43410       -1.11063
C         -6.11122       -0.70692        0.02854
C         -3.66705        0.69482        0.02726
C         -4.92214        1.39529        0.04996
C         -6.09906        0.72358        0.05060
C         -2.47014        1.38290        0.02651
C         -1.22575        0.71364        0.00431
C         -0.00869        1.40086        0.00325
C          1.21307        0.72255       -0.01890
C          2.44722        1.41533       -0.02011
C          3.65658        0.74738       -0.04190
C          4.94437        1.41387       -0.04387
C          5.00860        2.91777       -0.02084
F          4.38887        3.46130       -1.08673
F          4.41057        3.42716        1.07384
F          6.26958        3.37571       -0.02636
C          6.10008        0.70017       -0.06588
C          3.65592       -0.70157       -0.06421
C          4.91101       -1.40203       -0.08708
C          6.08793       -0.73033       -0.08796
C          2.45901       -1.38966       -0.06334
C          1.21463       -0.72039       -0.04110
H          0.00079       -2.49495       -0.05676
H         -2.42724       -2.50515       -0.03367
H         -7.06318       -1.22472        0.02932
H         -4.90286        2.48165        0.06667
H         -7.04289        1.25839        0.06773
H         -2.48056        2.47026        0.04345
H         -0.01192        2.48819        0.02010
H          2.41610        2.49840       -0.00332
H          7.05204        1.21798       -0.06673
H          4.89172       -2.48840       -0.10369
H          7.03175       -1.26514       -0.10530
H          2.46943       -2.47702       -0.08021
