42
anti_C_S_m-CF3benz_2-F.log	Energy: -1102554.0431394
C          1.00838        1.74682       -0.82203
C          0.11819        0.90031       -0.16137
C         -1.29299        1.08791       -0.24083
C         -2.14693        0.24424        0.41592
C         -3.59417        0.26782        0.45862
C         -4.07487       -0.73074        1.21401
F         -5.34903       -0.99142        1.45891
C         -1.60463       -0.84384        1.19481
S         -2.88356       -1.79642        1.94933
C         -0.26521       -1.06234        1.30018
C          0.64217       -0.19255        0.62182
C          2.02168       -0.37589        0.69944
C          2.91377        0.47419        0.03598
C          4.31823        0.29272        0.11100
C          5.20343        1.12354       -0.53819
C          6.66102        0.94865       -0.47017
C          7.26876       -0.08552        0.26497
C          8.63974       -0.22756        0.31147
C          7.49672        1.84851       -1.16788
C          8.89161        1.69443       -1.11252
C          9.45956        0.67056       -0.38361
C         10.95105        0.50849       -0.29612
F         11.39878        0.75599        0.94849
F         11.32621       -0.74779       -0.59769
F         11.60608        1.33424       -1.12714
C          4.67324        2.21691       -1.32168
C          5.58648        3.10092       -2.01140
C          6.91885        2.92795       -1.93974
C          3.31279        2.40992       -1.40690
C          2.39289        1.56214       -0.74380
H          0.61680        2.57152       -1.41324
H         -1.68241        1.91242       -0.83193
H         -4.21729        0.99228       -0.04910
H          0.13135       -1.88433        1.88915
H          2.41499       -1.20022        1.29030
H          4.67462       -0.53947        0.70955
H          6.66104       -0.79705        0.81213
H          9.08420       -1.03572        0.88327
H          9.52245        2.39184       -1.65408
H          5.16458        3.91534       -2.59398
H          7.59367        3.59966       -2.46305
H          2.92827        3.23669       -1.99997
