43
anti_C_C_3-Cl_p-CNbenz.log	Energy: -973824.9389924
C         -2.27739        1.37488        0.43010
C         -3.48786        0.70179        0.56969
C         -4.71816        1.39685        0.73760
C         -5.91762        0.74395        0.87619
C         -7.19879        1.44725        1.05115
C         -7.28801        2.84443        1.09072
C         -8.51207        3.48222        1.25719
C         -8.56322        4.91728        1.29268
N         -8.60361        6.07557        1.32079
C         -8.39037        0.69740        1.18574
C         -9.61910        1.35892        1.35322
C         -9.69324        2.73436        1.39020
C         -5.92450       -0.70486        0.84915
C         -7.18086       -1.40769        0.99291
C         -8.34337       -0.74912        1.15131
C         -4.75012       -1.39876        0.68849
C         -3.50090       -0.73913        0.54419
C         -2.30463       -1.43218        0.38079
C         -1.08227       -0.75928        0.23970
C          0.13461       -1.45553        0.07350
C          1.33740       -0.78885       -0.06543
C          2.60662       -1.45340       -0.23779
Cl         2.65233       -3.20239       -0.27705
C          3.76877       -0.76534       -0.37089
C          1.35441        0.65915       -0.04027
C          2.60467        1.35033       -0.18445
C          3.76449        0.66488       -0.34321
C          0.16585        1.34812        0.12223
C         -1.06897        0.68211        0.26506
H         -2.26536        2.46229        0.44911
H         -4.66853        2.48096        0.75171
H         -6.40203        3.46032        0.99245
H        -10.52396        0.76650        1.45487
H        -10.64348        3.24062        1.51964
H         -7.16073       -2.49386        0.96921
H         -9.27777       -1.29287        1.25769
H         -4.77054       -2.48603        0.67017
H         -2.31577       -2.51944        0.36174
H          0.11382       -2.54021        0.05590
H          4.70325       -1.30029       -0.49868
H          2.59897        2.43636       -0.16320
H          4.70726        1.19118       -0.45180
H          0.18149        2.43538        0.14079
