43
anti_S_O_m-CNbenz_diCF3.log	Energy: -1308218.7386926
C         -3.71306        0.09315       -1.40487
C         -4.76532       -0.29404       -0.56559
C         -6.12075       -0.12425       -0.96676
C         -7.11730       -0.51366       -0.11134
C         -8.56876       -0.51503       -0.14050
C         -9.43316        0.01035       -1.24242
F         -8.75729        0.01106       -2.40521
F        -10.53222       -0.73345       -1.41851
F         -9.82617        1.27042       -1.01119
C         -8.96033       -1.03048        1.04550
C        -10.32109       -1.32210        1.62092
F        -10.73556       -2.54713        1.27835
F        -10.28318       -1.25665        2.95351
F        -11.22052       -0.43900        1.18069
C         -6.78160       -1.08292        1.15043
O         -7.92430       -1.39533        1.83846
C         -5.51196       -1.27528        1.59124
C         -4.45610       -0.87464        0.72080
C         -3.11561       -1.03091        1.08711
C         -2.07262       -0.64272        0.24710
C         -0.70773       -0.80437        0.62699
C          0.29744       -0.41652       -0.21291
C          1.73957       -0.49761       -0.00884
C          2.43303       -0.99236        1.09713
C          3.81786       -0.98508        1.10493
C          2.45929        0.00449       -1.10657
C          3.84746        0.01950       -1.11596
C          4.52204       -0.48018        0.00053
C          5.95854       -0.47637        0.01672
N          7.11752       -0.47445        0.03222
C         -0.02319        0.15988       -1.49210
S          1.42354        0.58531       -2.40848
C         -1.31097        0.33380       -1.89768
C         -2.37923       -0.06411       -1.03589
H         -3.94730        0.52933       -2.37299
H         -6.34378        0.30854       -1.93516
H         -5.30293       -1.71237        2.56131
H         -2.88124       -1.46749        2.05508
H         -0.48415       -1.24151        1.59668
H          1.89058       -1.38331        1.95230
H          4.36657       -1.36681        1.95860
H          4.40482        0.40645       -1.96203
H         -1.54705        0.76938       -2.86412
