44
anti_C_C_3-F_diOMe.log	Energy: -737122.3802742
C         -2.91791       -0.09733       -0.74617
C         -3.91384       -0.25132        0.22213
C         -5.28915       -0.13362       -0.09176
C         -6.26295       -0.28738        0.87365
C         -7.66564       -0.17912        0.55256
O         -8.00250        0.04896       -0.75910
C         -8.43095       -1.12901       -1.42956
C         -8.61496       -0.31374        1.52543
O         -9.95737       -0.22926        1.31286
C        -10.43741        0.85639        0.53106
C         -5.88208       -0.57519        2.23932
C         -6.92173       -0.73956        3.21927
C         -8.22520       -0.60835        2.87615
C         -4.54500       -0.68988        2.55955
C         -3.52932       -0.53706        1.58573
C         -2.17354       -0.65384        1.90232
C         -1.17764       -0.50102        0.93297
C          0.19632       -0.61875        1.24756
C          1.16400       -0.46397        0.27726
C          2.56606       -0.57729        0.56409
F          2.90246       -0.84485        1.83692
C          3.52676       -0.42818       -0.37544
C          0.79263       -0.17603       -1.09093
C          1.83346       -0.02169       -2.07224
C          3.14056       -0.14299       -1.72633
C         -0.54689       -0.05967       -1.40606
C         -1.56049       -0.21390       -0.43090
H         -3.20689        0.11964       -1.77205
H         -5.58472        0.09370       -1.11115
H         -9.34467       -1.53122       -0.97492
H         -7.64740       -1.89625       -1.40597
H         -8.63098       -0.84227       -2.46387
H        -11.48458        0.98593        0.81185
H        -10.36584        0.65432       -0.54095
H         -9.87943        1.77201        0.75480
H         -6.64032       -0.96091        4.24484
H         -9.02145       -0.71869        3.60499
H         -4.25773       -0.90353        3.58672
H         -1.88455       -0.86912        2.92861
H          0.48871       -0.83432        2.27028
H          4.57076       -0.52482       -0.10010
H          1.54843        0.19464       -3.09776
H          3.91824       -0.02462       -2.47420
H         -0.83687        0.15686       -2.43172
