59
anti_NPh_NPh_diF_m-CNbenz.log	Energy: -1072129.6987998
C         -3.74814       -1.14352       -0.44500
C         -2.55832       -0.42277       -0.33828
C         -1.29080       -1.04666       -0.53517
C         -0.14794       -0.30973       -0.42201
C          1.26152       -0.63059       -0.56986
C          1.94351       -1.80738       -0.86086
C          3.33025       -1.79183       -0.91849
C          1.97684        0.56380       -0.34111
C          3.36430        0.59846       -0.38221
C          4.02798       -0.59678       -0.67720
C          5.46380       -0.59880       -0.73378
N          6.62224       -0.60079       -0.78138
C         -0.21561        1.09265       -0.10259
N          1.08683        1.59501       -0.06175
C          1.44292        2.93727        0.22178
C          1.04123        3.52341        1.42214
C          1.38544        4.84311        1.69351
C          2.14613        5.57159        0.78245
C          2.55323        4.97978       -0.41022
C          2.19358        3.66765       -0.69934
C         -1.40229        1.73759        0.08454
C         -2.61251        0.98658       -0.02710
C         -3.85934        1.58250        0.15792
C         -5.05536        0.86225        0.05254
C         -6.31738        1.48605        0.25314
C         -7.46136        0.74291        0.13400
C         -8.85669        1.04313        0.28326
F         -9.37072        2.23662        0.58558
C         -9.54493       -0.09852        0.06086
F        -10.84718       -0.30417        0.07467
C         -7.39308       -0.65916       -0.19160
N         -8.69605       -1.15725       -0.22868
C         -9.10041       -2.46712       -0.58979
C         -8.61091       -3.04152       -1.76304
C         -8.99193       -4.33364       -2.10709
C         -9.87752       -5.04286       -1.30010
C        -10.37565       -4.45754       -0.13923
C         -9.98142       -3.17534        0.22650
C         -6.20184       -1.30052       -0.37603
C         -4.99886       -0.54642       -0.26073
H         -3.70103       -2.20484       -0.67986
H         -1.25349       -2.10551       -0.77817
H          1.39950       -2.72991       -1.03844
H          3.88448       -2.69545       -1.14552
H          3.92102        1.50853       -0.19011
H          0.46732        2.93915        2.13465
H          1.06943        5.29839        2.62701
H          2.42124        6.59846        1.00171
H          3.14241        5.54428       -1.12619
H          2.48484        3.20547       -1.63764
H         -1.44683        2.79851        0.30933
H         -3.90662        2.64355        0.39273
H         -6.36418        2.54159        0.50283
H         -7.94336       -2.47074       -2.40062
H         -8.60616       -4.78045       -3.01819
H        -10.17985       -6.04821       -1.57586
H        -11.06576       -5.00545        0.49475
H        -10.34938       -2.72272        1.14093
H         -6.15484       -2.36152       -0.59997
