45
anti_O_NPh_C_3-OMe.log	Energy: -732736.2316875
C          0.26273        1.41755        1.12718
C          1.64356        1.34702        0.91102
C          2.56089        2.08650        1.70697
C          3.90436        1.98840        1.45853
C          5.07361        2.60441        2.04755
O          5.08000        3.47175        3.09710
C          4.66350        4.78236        2.74739
C          6.16273        2.12789        1.39671
C          4.39277        1.12159        0.41873
N          5.78166        1.21507        0.41464
C          6.67654        0.53155       -0.43599
C          6.53097       -0.83934       -0.65958
C          7.42189       -1.50170       -1.49649
C          8.47394       -0.81320       -2.09476
C          8.62627        0.54989       -1.85665
C          7.72641        1.22580       -1.04013
C          3.54454        0.40983       -0.38530
C          2.14288        0.50872       -0.15410
C          1.22537       -0.19772       -0.93825
C         -0.15258       -0.12511       -0.72480
C         -1.06904       -0.85728       -1.53872
C         -2.41078       -0.75850       -1.29249
C         -3.61471       -1.32165       -1.87112
C         -4.63777       -0.81790       -1.15696
C         -2.87359        0.07500       -0.22604
O         -4.23992        0.02642       -0.15793
C         -2.05781        0.79657        0.58357
C         -0.65057        0.71005        0.34623
H         -0.10976        2.04772        1.93200
H          2.18758        2.72126        2.50600
H          5.35460        5.23139        2.02244
H          4.66811        5.36758        3.66884
H          3.65340        4.78341        2.31928
H          7.20856        2.32969        1.57791
H          5.73417       -1.38139       -0.16106
H          7.30167       -2.56738       -1.66648
H          9.17175       -1.33617       -2.74106
H          9.44108        1.09689       -2.32129
H          7.82296        2.29534       -0.87969
H          3.90995       -0.21755       -1.19187
H          1.59851       -0.82807       -1.74280
H         -0.68571       -1.48177       -2.34087
H         -3.68753       -2.00556       -2.70381
H         -5.70607       -0.95880       -1.22985
H         -2.44796        1.41773        1.38285
