55
anti_O_NPh_diOMe_tetFbenz.log	Energy: -1149967.7602745
C         -2.30453       -1.96911        0.14114
C         -1.31360       -0.98686        0.05380
C          0.02547       -1.31554       -0.30478
C          0.96307       -0.32503       -0.37708
C          2.37254       -0.31298       -0.71919
C          3.26338       -1.31498       -1.07064
F          2.85795       -2.58470       -1.15882
C          4.58834       -1.00223       -1.33196
F          5.46030       -1.95126       -1.67545
C          2.81016        1.02450       -0.62687
C          4.14299        1.34076       -0.87135
F          4.61281        2.58874       -0.77259
C          5.01676        0.32182       -1.23033
F          6.29255        0.61121       -1.47587
C          0.61026        1.03767       -0.09000
N          1.75004        1.83495       -0.24245
C          1.75966        3.25064       -0.11815
C          1.41776        3.83181        1.10154
C          1.39409        5.21742        1.22122
C          1.72710        6.01931        0.13304
C          2.07519        5.43256       -1.08110
C          2.08112        4.04902       -1.21373
C         -0.66125        1.40155        0.24428
C         -1.66073        0.38580        0.32679
C         -2.98091        0.68853        0.66901
C         -3.97349       -0.29105        0.75794
C         -5.31722        0.04081        1.11093
C         -6.25001       -0.95595        1.18969
C         -7.66053       -1.02502        1.50083
O         -8.47110        0.02655        1.82048
C         -8.26359        0.51083        3.13901
C         -8.00786       -2.33688        1.38603
O         -9.12762       -3.02962        1.52356
C        -10.29596       -2.29849        1.87991
C         -5.87485       -2.30406        0.90527
O         -6.96461       -3.13050        1.02259
C         -4.62209       -2.68624        0.56301
C         -3.62148       -1.66550        0.48395
H         -2.03837       -3.00317       -0.06684
H          0.28596       -2.34633       -0.52204
H          1.17834        3.19405        1.94675
H          1.12711        5.66969        2.17135
H          1.71650        7.10041        0.23079
H          2.33399        6.05396       -1.93268
H          2.33572        3.58223       -2.15976
H         -0.92539        2.43535        0.44265
H         -3.24634        1.72350        0.87349
H         -5.58145        1.07713        1.30046
H         -8.90683        1.38504        3.25569
H         -7.21819        0.80080        3.29829
H         -8.53517       -0.24968        3.88348
H        -11.10216       -3.03128        1.89424
H        -10.50589       -1.51586        1.14702
H        -10.18566       -1.84927        2.87207
H         -4.37756       -3.72171        0.35118
