51
anti_O_NPh_diF_m-OMebenz.log	Energy: -953629.4987022
C         -2.94282       -1.75137        0.16608
C         -1.88476       -0.84178        0.12559
C         -0.52741       -1.27938        0.07187
C          0.48181       -0.36200        0.03586
C          1.92840       -0.46681       -0.03230
C          2.81687       -1.54159       -0.06552
C          4.17777       -1.30053       -0.11279
C          2.43603        0.84169       -0.05175
C          3.80284        1.11281       -0.08761
C          4.66737        0.01877       -0.11975
O          6.01816        0.12907       -0.15818
C          6.58075        1.42135       -0.16259
C          0.17751        1.04707        0.05638
N          1.38065        1.75210        0.00137
C          1.50556        3.16180       -0.00368
C          0.95874        3.91342        1.03697
C          1.07493        5.29917        1.02377
C          1.75308        5.93721       -0.01175
C          2.30620        5.18386       -1.04389
C          2.17452        3.79925       -1.04933
C         -1.10272        1.51544        0.09477
C         -2.17408        0.57176        0.13336
C         -3.50651        0.98379        0.17838
C         -4.56924        0.07515        0.21811
C         -5.92359        0.52100        0.26395
C         -6.92379       -0.40955        0.30229
C         -8.36430       -0.37821        0.35256
F         -9.13028        0.70985        0.37563
C         -8.77484       -1.65847        0.37129
F         -9.97564       -2.17630        0.41502
C         -6.60822       -1.80289        0.29605
O         -7.76297       -2.55617        0.33904
C         -5.34417       -2.28893        0.25329
C         -4.27649       -1.33928        0.21249
H         -2.72105       -2.81639        0.16037
H         -0.31584       -2.34540        0.05514
H          2.44619       -2.56243       -0.05183
H          4.89587       -2.11225       -0.14129
H          4.16212        2.13401       -0.08093
H          7.66136        1.27877       -0.19762
H          6.31787        1.97797        0.74611
H          6.26249        1.99572       -1.04232
H          0.45102        3.40462        1.85042
H          0.64482        5.88080        1.83340
H          1.84894        7.01852       -0.01498
H          2.82965        5.67600       -1.85797
H          2.57958        3.20449       -1.86226
H         -1.32302        2.57838        0.09163
H         -3.72803        2.04880        0.18249
H         -6.14301        1.58403        0.26761
H         -5.14184       -3.35463        0.24961
