51
anti_C_NPh_p-CNbenz_diF.log	Energy: -941028.3859185
C         -2.10312       -1.30625        2.75081
C         -3.06015       -0.48463        2.14944
C         -4.35254       -0.31056        2.71983
C         -5.25915        0.50047        2.09372
C         -6.60415        0.89987        2.39530
F         -7.31787        0.50370        3.45010
C         -7.00719        1.74100        1.41735
F         -8.16664        2.34810        1.26418
C         -4.91344        1.17483        0.86620
N         -6.01189        1.93590        0.46997
C         -6.13327        2.71316       -0.71030
C         -5.82815        2.14263       -1.94590
C         -5.92778        2.91083       -3.10059
C         -6.35442        4.23417       -3.02845
C         -6.67347        4.79234       -1.79353
C         -6.55337        4.04004       -0.63048
C         -3.68133        1.04789        0.29278
C         -2.72019        0.20580        0.92394
C         -1.44503        0.03199        0.38071
C         -0.49145       -0.79003        0.98619
C          0.80464       -0.96786        0.43471
C          1.74954       -1.77545        1.02309
C          3.09676       -1.97196        0.46649
C          3.52070       -1.34578       -0.71300
C          4.80012       -1.55024       -1.21638
C          5.19713       -0.89057       -2.42891
N          5.51702       -0.35805       -3.40788
C          4.00861       -2.82174        1.13601
C          5.29880       -3.01659        0.61216
C          5.70259       -2.39481       -0.54880
C          1.40275       -2.46433        2.24660
C          2.38349       -3.31793        2.87901
C          3.61264       -3.48820        2.35739
C          0.15238       -2.30598        2.79829
C         -0.83021       -1.47702        2.20227
H         -2.35736       -1.82603        3.67183
H         -4.60573       -0.81669        3.64625
H         -5.52359        1.10206       -1.99531
H         -5.68510        2.46713       -4.06114
H         -6.43927        4.82864       -3.93261
H         -7.00568        5.82385       -1.73089
H         -6.77965        4.47565        0.33679
H         -3.42086        1.57437       -0.61974
H         -1.18812        0.55204       -0.53956
H          1.02352       -0.43272       -0.48397
H          2.85778       -0.68615       -1.26012
H          5.98505       -3.67265        1.14022
H          6.69871       -2.54816       -0.94921
H          2.09932       -3.82477        3.79735
H          4.33745       -4.13354        2.84566
H         -0.09438       -2.83031        3.71889
