33
anti_C_O_2-F_diF.log	Energy: -716554.1733240
C         -2.75157        0.94080       -0.27279
C         -3.88471        0.32328        0.24566
C         -5.18542        0.89426        0.07284
C         -6.26329        0.24812        0.60113
C         -7.68586        0.47899        0.64837
F         -8.33507        1.50962        0.11456
C         -8.21779       -0.54777        1.33385
F         -9.45532       -0.81655        1.65660
C         -6.08819       -0.98147        1.31614
O         -7.30488       -1.45385        1.75844
C         -4.88946       -1.57432        1.51548
C         -3.73277       -0.92268        0.97342
C         -2.46339       -1.46479        1.13292
C         -1.31787       -0.84225        0.60969
C         -0.02801       -1.38956        0.76931
C          1.09473       -0.76821        0.24953
C          2.41120       -1.31893        0.40748
C          3.47209       -0.66733       -0.12248
F          4.70987       -1.16671        0.01474
C          0.94341        0.47309       -0.47530
C          2.11828        1.10606       -1.00889
C          3.34908        0.55874       -0.84183
C         -0.31750        1.01945       -0.63808
C         -1.46799        0.39520       -0.11313
H         -2.86175        1.87502       -0.81884
H         -5.29747        1.82633       -0.47179
H         -4.79649       -2.50614        2.06259
H         -2.35095       -2.39877        1.67866
H          0.08260       -2.32360        1.31520
H          2.55499       -2.24927        0.94665
H          2.00295        2.03906       -1.55343
H          4.24534        1.02323       -1.23792
H         -0.42886        1.95375       -1.18399
