37
anti_S_S_2-CN_tetFbenz.log	Energy: -1337014.7291303
C         -2.76991       -1.74779        0.22098
C         -1.77874       -0.77152        0.12738
C         -0.39796       -1.12107        0.04938
C          0.55643       -0.14668       -0.04176
C          2.00613       -0.28060       -0.13079
C          2.78498       -1.43314       -0.14582
F          2.22224       -2.64284       -0.07308
C          4.16702       -1.35120       -0.23698
F          4.90641       -2.45651       -0.25106
C          2.64880        0.96600       -0.20984
C          4.02785        1.05416       -0.30085
F          4.63241        2.24014       -0.37548
C          4.78962       -0.10658       -0.31449
F          6.11311       -0.03890       -0.40122
C          0.16458        1.23938       -0.05888
S          1.54672        2.33333       -0.18072
C         -1.14074        1.61702        0.01333
C         -2.15783        0.61779        0.10916
C         -3.50744        0.95318        0.18556
C         -4.50536       -0.02478        0.27965
C         -5.88029        0.32137        0.35748
C         -6.83688       -0.65930        0.44915
C         -8.26834       -0.51465        0.53698
C         -8.91061       -1.70459        0.61458
C        -10.31860       -1.88571        0.71082
N        -11.46579       -2.03645        0.78941
C         -6.44385       -2.04262        0.46616
S         -7.83852       -3.10396        0.58830
C         -5.13300       -2.41781        0.39333
C         -4.12612       -1.41507        0.29790
H         -2.48029       -2.79584        0.23458
H         -0.11879       -2.16845        0.06349
H         -1.42851        2.66417       -0.00015
H         -3.79599        2.00159        0.17204
H         -6.16676        1.36951        0.34381
H         -8.78218        0.43902        0.54098
H         -4.83993       -3.46343        0.40658
