43
anti_C_O_3-OMe_benz.log	Energy: -698035.0799706
C         -2.66539       -1.45614       -0.88595
C         -1.52098       -0.80544       -0.44018
C         -0.24356       -1.05316       -1.03990
C          0.85381       -0.39526       -0.57469
C          2.26965       -0.37925       -0.91267
C          3.06586       -1.03278       -1.84891
C          4.42861       -0.75189       -1.87513
C          2.85439        0.53540       -0.02963
C          4.20623        0.83082       -0.03672
C          4.98751        0.16714       -0.98057
C          0.72403        0.53783        0.50865
O          1.93906        1.09095        0.82610
C         -0.45024        0.81867        1.11987
C         -1.62549        0.14138        0.65224
C         -2.86976        0.37240        1.22448
C         -4.02853       -0.28392        0.77574
C         -5.29225       -0.04848        1.35741
C         -6.42412       -0.70074        0.90614
C         -7.72491       -0.46471        1.49758
O         -7.71723        0.43546        2.50909
C         -8.94148        0.72159        3.14557
C         -8.83006       -1.11908        1.03728
C         -6.32778       -1.64453       -0.18071
C         -7.51818       -2.31017       -0.63201
C         -8.71210       -2.05181       -0.04228
C         -5.09076       -1.87996       -0.75547
C         -3.92496       -1.22409       -0.30891
H         -2.58529       -2.16653       -1.70599
H         -0.17197       -1.76406       -1.85853
H          2.63250       -1.74612       -2.54341
H          5.06674       -1.25078       -2.59742
H          4.62828        1.54480        0.66131
H          6.05339        0.36974       -1.02025
H         -0.51247        1.52990        1.93643
H         -2.95337        1.08194        2.04454
H         -5.37567        0.65923        2.17550
H         -9.66706        1.14671        2.44051
H         -8.71540        1.45514        3.92009
H         -9.36969       -0.17714        3.60731
H         -9.80719       -0.94871        1.47318
H         -7.44029       -3.01988       -1.45048
H         -9.61036       -2.55646       -0.38558
H         -5.01225       -2.59066       -1.57529
