50
anti_O_NPh_3-F_p-CF3benz.log	Energy: -1030979.0232093
C         -2.94063       -1.71476        0.14917
C         -1.87670       -0.81298        0.11023
C         -0.52281       -1.26205        0.06256
C          0.49164       -0.35132        0.02825
C          1.93938       -0.47152       -0.03493
C          2.79867       -1.56137       -0.06096
C          4.17027       -1.33175       -0.10059
C          5.12760       -2.48412       -0.18928
F          4.57980       -3.63226        0.24568
F          5.53535       -2.70112       -1.45514
F          6.23881       -2.26788        0.53862
C          2.45855        0.83821       -0.05509
C          3.83148        1.07500       -0.08421
C          4.67586       -0.02549       -0.10910
C          0.20250        1.05917        0.04313
N          1.41375        1.75340       -0.00864
C          1.55141        3.16384       -0.01168
C          1.01657        3.91607        1.03422
C          1.14499        5.30072        1.02335
C          1.82243        5.93453       -0.01528
C          2.36310        5.17930       -1.05252
C          2.21969        3.79582       -1.06019
C         -1.07314        1.53919        0.07618
C         -2.15249        0.60399        0.11349
C         -3.48083        1.02649        0.15296
C         -4.55118        0.12529        0.19130
C         -5.90017        0.58155        0.23150
C         -6.90678       -0.34370        0.26868
C         -8.34685       -0.30460        0.31408
F         -9.08113        0.80488        0.33128
C         -8.79845       -1.57127        0.33537
C         -6.61117       -1.73967        0.26707
O         -7.76525       -2.47302        0.30772
C         -5.34595       -2.23350        0.22953
C         -4.27268       -1.29303        0.19014
H         -2.72653       -2.78124        0.14677
H         -0.31880       -2.32954        0.04972
H          2.41091       -2.57426       -0.04272
H          4.23001        2.08348       -0.07809
H          5.74973        0.12838       -0.12653
H          0.50911        3.40966        1.84935
H          0.72531        5.88445        1.83681
H          1.92817        7.01486       -0.01650
H          2.88716        5.66860       -1.86771
H          2.61566        3.19972       -1.87664
H         -1.28395        2.60392        0.07014
H         -3.69464        2.09300        0.15381
H         -6.11209        1.64629        0.23198
H         -9.79388       -1.98426        0.36911
H         -5.14994       -3.30045        0.22899
