38
anti_S_O_3-OMe_2-OMe.log	Energy: -874779.8259683
C          1.09387        1.85758        0.51841
C         -0.05294        1.09026        0.30423
C         -1.35146        1.58472        0.63894
C         -2.45044        0.80184        0.41352
C         -3.87515        0.93678        0.60821
C         -4.41027       -0.22516        0.16766
O         -5.68084       -0.59809        0.13214
C         -5.98164       -1.89165       -0.38536
C         -2.26675       -0.49990       -0.15554
O         -3.48926       -1.11679       -0.29887
C         -1.07073       -1.03216       -0.49630
C          0.09273       -0.22899       -0.26838
C          1.36698       -0.69363       -0.58789
C          2.51437        0.07742       -0.37204
C          3.81157       -0.40393       -0.70074
C          4.90922        0.38137       -0.47406
C          6.30533        0.07833       -0.73679
O          6.59776       -1.12450       -1.27404
C          7.96504       -1.37824       -1.51145
C          7.14764        1.07841       -0.39461
C          4.76225        1.68897        0.09351
S          6.32302        2.48037        0.27827
C          3.53472        2.18760        0.42281
C          2.37281        1.39252        0.19825
H          0.98791        2.85091        0.94915
H         -1.44567        2.57778        1.06857
H         -4.42195        1.77241        1.01499
H         -7.06530       -1.98136       -0.31960
H         -5.50423       -2.67322        0.21206
H         -5.66094       -1.98105       -1.42690
H         -0.98424       -2.02496       -0.92504
H          1.47500       -1.68671       -1.01872
H          3.92786       -1.39430       -1.13114
H          8.53904       -1.34339       -0.57624
H          8.38255       -0.64977       -2.21880
H          8.02405       -2.37910       -1.93974
H          8.22382        1.10181       -0.48840
H          3.42333        3.17889        0.85313
