46
anti_S_NPh_2-OMe_2-CN.log	Energy: -993274.6396251
C          0.50560        0.74274       -1.93490
C          1.86269        0.81615       -1.58817
C          2.84271        1.23301       -2.52428
C          4.16301        1.28908       -2.14736
C          5.36809        1.67184       -2.83000
C          6.38786        1.53404       -1.93613
C          7.77231        1.77635       -2.16488
N          8.89374        1.98661       -2.37129
C          4.54289        0.92158       -0.81000
N          5.91809        1.08031       -0.70347
C          6.70534        0.79746        0.44381
C          7.54226        1.77680        0.97538
C          8.31921        1.48348        2.09096
C          8.24340        0.22916        2.68936
C          7.39624       -0.74160        2.16078
C          6.63402       -0.46553        1.03153
C          3.62876        0.52658        0.13068
C          2.25970        0.46300       -0.24386
C          1.27284        0.06276        0.66695
C         -0.07479       -0.00798        0.31867
C         -1.07228       -0.41705        1.25255
C         -2.39106       -0.48030        0.88774
C         -3.53710       -0.86522        1.67409
C         -4.69354       -0.80837        0.97835
O         -5.89253       -1.11472        1.48708
C         -7.03151       -1.02857        0.64784
C         -2.76068       -0.12547       -0.46170
S         -4.49876       -0.27888       -0.70908
C         -1.84838        0.27080       -1.38894
C         -0.46749        0.34263       -1.02520
H          0.20811        1.00816       -2.94718
H          2.53798        1.50878       -3.53015
H          5.46955        2.00119       -3.85351
H          7.58198        2.75958        0.51705
H          8.97786        2.24390        2.49827
H          8.84519        0.00719        3.56505
H          7.33890       -1.72415        2.61879
H          5.99013       -1.22264        0.59524
H          3.92550        0.27030        1.14268
H          1.56985       -0.20134        1.67949
H         -0.77042       -0.67925        2.26310
H         -3.49369       -1.16969        2.71185
H         -7.88000       -1.32004        1.26662
H         -6.94813       -1.71466       -0.20307
H         -7.17929       -0.00417        0.28639
H         -2.14272        0.53478       -2.40083
