46
anti_C_S_m-CNbenz_tetFbenz.log	Energy: -1232111.9222034
C         -2.79283       -1.59273        0.12571
C         -1.73896       -0.70375       -0.07632
C         -0.40449       -1.03489        0.30562
C          0.61383       -0.14756        0.09753
C          2.03290       -0.28172        0.40737
C          2.71013       -1.34613        0.99349
F          2.06001       -2.45327        1.36399
C          4.07967       -1.28148        1.20677
F          4.72141       -2.30264        1.76762
C          2.76546        0.85840        0.03721
C          4.13241        0.92868        0.24751
F          4.82240        2.01347       -0.10600
C          4.79211       -0.14339        0.83343
F          6.10297       -0.09157        1.04137
C          0.33688        1.12885       -0.51070
S          1.78663        2.12311       -0.68946
C         -0.92006        1.48586       -0.89006
C         -2.00328        0.57638       -0.68402
C         -3.30684        0.89608       -1.05592
C         -4.36674        0.00317       -0.85357
C         -5.69576        0.32191       -1.23014
C         -6.74438       -0.54935       -1.03556
C         -8.12650       -0.23306       -1.42088
C         -8.48601        0.98726       -2.02047
C         -9.78994        1.26409       -2.37439
C         -9.14350       -1.18712       -1.18389
C        -10.46701       -0.90101       -1.54536
C        -10.79432        0.31130       -2.13546
C        -12.15471        0.59149       -2.50071
N        -13.25203        0.82005       -2.79628
C         -6.47222       -1.83097       -0.42536
C         -7.55994       -2.75987       -0.21213
C         -8.82111       -2.45778       -0.56934
C         -5.18808       -2.15904       -0.05267
C         -4.10290       -1.27170       -0.24812
H         -2.59318       -2.55840        0.58425
H         -0.21283       -1.99932        0.76192
H         -1.12025        2.45006       -1.34809
H         -3.50699        1.86174       -1.51456
H         -5.85771        1.29388       -1.68466
H         -7.73354        1.74191       -2.21752
H        -10.04573        2.21166       -2.83581
H        -11.24295       -1.63778       -1.36065
H         -7.32970       -3.71668        0.24823
H         -9.62898       -3.16479       -0.40355
H         -4.99681       -3.12671        0.40546
