56
anti_O_NPh_diOMe_p-CNbenz.log	Energy: -958832.5411174
C         -2.31142       -2.03807        0.22558
C         -1.32563       -1.05394        0.11054
C          0.01897       -1.38459       -0.22825
C          0.95415       -0.39570       -0.33054
C          2.37053       -0.38909       -0.66078
C          3.27462       -1.39181       -0.97154
C          4.60460       -1.04226       -1.23025
C          5.55892       -2.06195       -1.55699
N          6.33081       -2.88623       -1.82176
C          2.79565        0.95663       -0.61454
C          4.12135        1.31256       -0.85971
C          5.01690        0.30084       -1.16897
C          0.58721        0.97407       -0.09512
N          1.72454        1.76878       -0.27628
C          1.77057        3.17852       -0.13345
C          1.40489        3.76513        1.07797
C          1.44291        5.14873        1.21237
C          1.86299        5.94564        0.15032
C          2.23518        5.35536       -1.05450
C          2.17930        3.97357       -1.20387
C         -0.68705        1.34291        0.22121
C         -1.68195        0.32514        0.33477
C         -3.00527        0.63174        0.65977
C         -3.99328       -0.34987        0.77632
C         -5.34061       -0.01364        1.11030
C         -6.26887       -1.01223        1.21619
C         -7.68088       -1.07853        1.52038
O         -8.49892       -0.02141        1.80019
C         -8.30594        0.50404        3.10509
C         -8.02088       -2.39524        1.44607
O         -9.13817       -3.08862        1.59819
C        -10.31366       -2.35115        1.91648
C         -5.88489       -2.36688        0.97874
O         -6.97104       -3.19479        1.11601
C         -4.62786       -2.75348        0.65736
C         -3.63231       -1.73055        0.55048
H         -2.03907       -3.07730        0.05431
H          0.28042       -2.42462       -0.40575
H          2.96700       -2.43166       -1.01289
H          4.44610        2.34570       -0.80595
H          6.05591        0.54264       -1.36592
H          1.09828        3.13234        1.90497
H          1.15541        5.60398        2.15505
H          1.89943        7.02483        0.26128
H          2.55749        5.97226       -1.88760
H          2.44326        3.50446       -2.14674
H         -0.95853        2.38165        0.38119
H         -3.27759        1.67153        0.82752
H         -5.61131        1.02695        1.26378
H         -8.95476        1.37784        3.18915
H         -7.26352        0.80445        3.26475
H         -8.58028       -0.23484        3.87003
H        -11.11758       -3.08608        1.94262
H        -10.51594       -1.59191        1.15731
H        -10.21790       -1.87150        2.89581
H         -4.37677       -3.79412        0.48160
