50
anti_C_NPh_3-CF3_2-CF3.log	Energy: -1085167.0549553
C          1.07336        2.00670        0.19385
C         -0.04767        1.18038        0.12364
C         -1.36655        1.71475        0.18959
C         -2.44410        0.87264        0.11933
C         -3.87080        1.07538        0.15595
C         -4.44485       -0.14752        0.04065
C         -5.90922       -0.44845        0.03841
F         -6.61120        0.65651        0.31766
F         -6.33111       -0.90017       -1.15762
F         -6.22887       -1.38200        0.94725
C         -2.23728       -0.54606       -0.02161
N         -3.48719       -1.14934       -0.07592
C         -3.69584       -2.55698       -0.15041
C         -3.31783       -3.35758        0.92603
C         -3.48831       -4.73518        0.85049
C         -4.04412       -5.30849       -0.29079
C         -4.42035       -4.50303       -1.36188
C         -4.23744       -3.12534       -1.30015
C         -0.99517       -1.10963       -0.09391
C          0.13975       -0.25104       -0.02054
C          1.43726       -0.75765       -0.08559
C          2.56274        0.07343       -0.01500
C          3.87535       -0.44589       -0.08099
C          4.98793        0.37365       -0.01095
C          6.35162       -0.11246       -0.07355
C          6.61513       -1.58705       -0.22106
F          6.09538       -2.29401        0.80176
F          6.06989       -2.08397       -1.34875
F          7.92629       -1.87079       -0.26428
C          7.40398        0.74492        0.00017
C          4.79648        1.80135        0.13317
C          5.94662        2.65857        0.20573
C          7.20323        2.15312        0.14184
C          3.51683        2.32014        0.19867
C          2.37505        1.49442        0.12882
H          0.93320        3.08002        0.30201
H         -1.50064        2.78791        0.29391
H         -4.39558        2.01274        0.26115
H         -2.89739       -2.89289        1.81235
H         -3.19503       -5.36026        1.68810
H         -4.18264       -6.38383       -0.34536
H         -4.84921       -4.94759       -2.25442
H         -4.51312       -2.48800       -2.13258
H         -0.85998       -2.18086       -0.20574
H          1.58130       -1.83009       -0.19476
H          3.98774       -1.51825       -0.18988
H          8.41573        0.35976       -0.04872
H          5.78374        3.72769        0.31362
H          8.06763        2.80659        0.19718
H          3.38322        3.39425        0.30693
