43
anti_C_O_m-CNbenz_3-CF3.log	Energy: -895490.8729115
C         -2.84260        0.65102        1.02578
C         -3.99617       -0.08819        0.75688
C         -5.29383        0.46712        0.96858
C         -6.39126       -0.29687        0.69048
C         -7.82686       -0.11098        0.76607
C         -8.54330        1.10686        1.21874
F         -8.21880        1.42769        2.48356
F         -8.23128        2.17229        0.46015
F         -9.87463        0.94222        1.16631
C         -8.38224       -1.26256        0.34212
C         -6.23175       -1.62677        0.19709
O         -7.46298       -2.19739       -0.00839
C         -5.02990       -2.21423       -0.02618
C         -3.86174       -1.43983        0.25532
C         -2.58396       -1.96325        0.05550
C         -1.43183       -1.21869        0.32637
C         -0.13183       -1.74978        0.12373
C          1.00792       -1.02496        0.38743
C          2.36068       -1.56145        0.18252
C          2.59579       -2.86065       -0.30175
C          3.87397       -3.34504       -0.48641
C          3.47793       -0.74695        0.48117
C          4.77453       -1.24369        0.29202
C          4.97817       -2.52999       -0.18695
C          6.31249       -3.02635       -0.37613
N          7.38849       -3.42939       -0.52982
C          0.86705        0.32449        0.88874
C          2.05328        1.10198        1.17275
C          3.28566        0.59838        0.98147
C         -0.38473        0.85799        1.09199
C         -1.56514        0.12190        0.82400
H         -2.94205        1.66628        1.40265
H         -5.39189        1.48052        1.34471
H         -9.41480       -1.55967        0.23683
H         -4.94782       -3.22816       -0.40215
H         -2.48218       -2.97842       -0.32130
H         -0.07017       -2.76569       -0.25286
H          1.76423       -3.51288       -0.54187
H          4.03281       -4.35033       -0.86111
H          5.62767       -0.61312        0.52349
H          1.92138        2.11288        1.54852
H          4.16804        1.19337        1.19930
H         -0.47647        1.87391        1.46943
