45
anti_C_C_2-Cl_p-CF3benz.log	Energy: -1127406.3976209
C         -2.25692        1.36155        0.39386
C         -3.46472        0.68626        0.54867
C         -4.69849        1.37897        0.69557
C         -5.89560        0.72413        0.84907
C         -7.17935        1.42580        1.00280
C         -7.27506        2.82643        1.00344
C         -8.49454        3.45923        1.14779
C         -8.58598        4.95968        1.17108
F         -7.41898        5.55119        0.86820
F         -9.50318        5.40838        0.29535
F         -8.95820        5.40954        2.38335
C         -8.36544        0.67526        1.15559
C         -9.59661        1.33805        1.30195
C         -9.67030        2.71382        1.29914
C         -5.89434       -0.72505        0.86067
C         -7.14746       -1.43037        1.02129
C         -8.31237       -0.77207        1.16025
C         -4.71570       -1.41665        0.72060
C         -3.46965       -0.75476        0.56117
C         -2.26886       -1.44503        0.41857
C         -1.04926       -0.77048        0.26243
C          0.17499       -1.45877        0.11715
C          1.37229       -0.78343       -0.03599
C          2.61945       -1.48104       -0.18383
C          3.77227       -0.78309       -0.33151
Cl         5.29416       -1.62321       -0.51215
C          1.37754        0.66092       -0.04859
C          2.63463        1.33821       -0.20898
C          3.79533        0.64927       -0.34616
C          0.18628        1.34793        0.09251
C         -1.04384        0.67294        0.24981
H         -2.25135        2.44922        0.38419
H         -4.65570        2.46332        0.68149
H         -6.38936        3.43824        0.88733
H        -10.50068        0.74659        1.41710
H        -10.62501        3.21744        1.40970
H         -7.12211       -2.51670        1.02677
H         -9.24489       -1.31659        1.27987
H         -4.73048       -2.50418        0.73137
H         -2.27500       -2.53258        0.42836
H          0.17023       -2.54622        0.12676
H          2.62434       -2.56620       -0.17549
H          2.64100        2.42459       -0.21877
H          4.74359        1.16091       -0.46716
H          0.19087        2.43554        0.08294
