56
anti_C_NPh_3-CF3_m-CF3benz.log	Energy: -1181558.2715935
C         -2.75218       -1.87299       -0.03972
C         -1.71933       -0.94359       -0.02324
C         -0.36275       -1.33486       -0.25111
C          0.62535       -0.39844       -0.22401
C          2.06469       -0.46320       -0.42165
C          2.94332       -1.50756       -0.68755
C          4.30049       -1.23658       -0.80363
C          2.55478        0.84893       -0.27788
C          3.91124        1.13387       -0.37905
C          4.77011        0.07188       -0.64593
C          6.23885        0.34451       -0.82965
F          6.99627       -0.65997       -0.35711
F          6.55303        0.49015       -2.13062
F          6.62708        1.46903       -0.20510
C          0.31185        0.98629        0.03662
N          1.49963        1.71578       -0.00241
C          1.61382        3.11348        0.20234
C          1.15243        3.68144        1.38992
C          1.25855        5.05434        1.58399
C          1.84243        5.85797        0.60802
C          2.31095        5.28577       -0.57161
C          2.18773        3.91661       -0.78310
C         -0.96422        1.41428        0.24743
C         -2.02223        0.45153        0.22572
C         -3.34489        0.82302        0.43951
C         -4.39225       -0.11315        0.42369
C         -5.73239        0.26909        0.64309
C         -6.76585       -0.65391        0.62943
C         -8.15496       -0.30985        0.85006
C         -8.54003        1.12141        1.11272
F         -8.19396        1.92931        0.09132
F         -9.86108        1.26976        1.29711
F         -7.93389        1.61004        2.21266
C         -9.12458       -1.26327        0.82397
C         -6.45655       -2.04452        0.38240
C         -7.52065       -3.00752        0.36620
C         -8.80746       -2.63421        0.57861
C         -5.14434       -2.42860        0.16562
C         -4.08778       -1.49786        0.17826
H         -2.52223       -2.91968       -0.22670
H         -0.14059       -2.38036       -0.44815
H          2.57591       -2.52333       -0.79715
H          5.00178       -2.03787       -1.00690
H          4.29112        2.14000       -0.24635
H          0.71947        3.04261        2.15336
H          0.89583        5.49473        2.50759
H          1.93213        6.92804        0.76658
H          2.76279        5.90794       -1.33790
H          2.52769        3.46445       -1.70978
H         -1.19466        2.45966        0.42586
H         -3.57888        1.86871        0.62520
H         -5.93444        1.31809        0.82528
H        -10.15789       -0.98303        0.99181
H         -7.26878       -4.04798        0.17870
H         -9.60740       -3.36712        0.56505
H         -4.92100       -3.47698       -0.01952
