34
anti_S_O_2-CF3_2-CN.log	Energy: -1000389.8206928
C          1.14838       -1.32822       -0.00125
C          2.32423       -0.57092       -0.00057
C          3.60308       -1.19807       -0.00038
C          4.72728       -0.41582        0.00025
C          6.14903       -0.66783        0.00063
C          6.73547        0.55019        0.00121
C          8.11637        0.89519        0.00173
N          9.24721        1.14790        0.00215
C          4.60260        1.00792        0.00070
O          5.84108        1.58747        0.00128
C          3.41521        1.66635        0.00057
C          2.22844        0.87275       -0.00006
C          0.96317        1.46349       -0.00018
C         -0.20929        0.70392       -0.00081
C         -1.49393        1.31577       -0.00083
C         -2.62700        0.54523       -0.00151
C         -4.01003        0.96607       -0.00161
C         -4.86867       -0.07051       -0.00239
C         -6.36190        0.03029       -0.00403
F         -6.75587        1.31094        0.00366
F         -6.89345       -0.55618       -1.08778
F         -6.89672       -0.57038        1.07027
C         -2.51639       -0.88981       -0.00227
S         -4.10148       -1.65153       -0.00298
C         -1.30614       -1.51841       -0.00215
C         -0.11417       -0.73495       -0.00141
H          1.22225       -2.41324       -0.00167
H          3.66816       -2.28204       -0.00073
H          6.65956       -1.61937        0.00048
H          3.36100        2.74937        0.00094
H          0.88821        2.54829        0.00022
H         -1.56524        2.40013       -0.00030
H         -4.32409        2.00238       -0.00112
H         -1.22803       -2.60164       -0.00264
