36
anti_S_S_diF_benz.log	Energy: -1154651.4542983
C         -2.85110       -1.71016        0.11961
C         -1.84230       -0.74599        0.10805
C         -0.46634       -1.10305       -0.00116
C          0.50461       -0.14199       -0.01036
C          1.95215       -0.30287       -0.11358
C          2.68937       -1.48255       -0.22781
C          4.07348       -1.42366       -0.31455
C          2.62720        0.92734       -0.08844
C          4.01453        0.99484       -0.17484
C          4.73107       -0.19078       -0.28804
C          0.13220        1.24432        0.09148
S          1.53798        2.30905        0.05987
C         -1.16908        1.63296        0.19742
C         -2.20045        0.64506        0.20885
C         -3.54691        0.99260        0.31509
C         -4.55955        0.02820        0.32660
C         -5.93216        0.38755        0.43488
C         -6.89323       -0.58576        0.44272
C         -8.32493       -0.44270        0.54277
F         -8.91051        0.75045        0.64644
C         -8.97796       -1.61632        0.51989
F        -10.28670       -1.79262        0.59439
C         -6.52736       -1.97122        0.34240
S         -7.94032       -3.03105        0.37509
C         -5.22443       -2.35636        0.23706
C         -4.20021       -1.36342        0.22606
H         -2.57922       -2.76063        0.04358
H         -0.20484       -2.15544       -0.07709
H          2.18110       -2.44236       -0.24863
H          4.64806       -2.34013       -0.40335
H          4.52755        1.95114       -0.15453
H          5.81398       -0.15518       -0.35649
H         -1.44212        2.68151        0.27365
H         -3.81875        2.04288        0.39124
H         -6.21098        1.43422        0.51098
H         -4.94806       -3.40410        0.16114
