53
anti_O_NPh_diCF3_tetFbenz.log	Energy: -1429164.3122799
C         -2.49367       -1.99254        0.18032
C         -1.49693       -1.01848        0.12060
C         -0.14186       -1.36336       -0.16370
C          0.80302       -0.38043       -0.21070
C          2.22795       -0.38423       -0.48166
C          3.12737       -1.39958       -0.76764
F          2.71698       -2.66750       -0.84912
C          4.46547       -1.09993       -0.96985
F          5.34652       -2.06022       -1.24982
C          2.66929        0.95186       -0.39578
C          4.01407        1.25600       -0.58183
F          4.48542        2.50291       -0.48786
C          4.89714        0.22401       -0.87539
F          6.18435        0.50019       -1.06431
C          0.44673        0.99308        0.02882
N          1.59703        1.77767       -0.08273
C          1.61157        3.19664        0.01326
C          1.22667        3.80424        1.20670
C          1.20745        5.19225        1.29650
C          1.58737        5.96877        0.20530
C          1.97860        5.35502       -0.98210
C          1.98091        3.96898       -1.08565
C         -0.83606        1.37272        0.29101
C         -1.84614        0.36449        0.34546
C         -3.17660        0.68402        0.61337
C         -4.18016       -0.29006        0.67390
C         -5.53129        0.06668        0.94808
C         -6.47881       -0.92102        1.00309
C         -7.90984       -0.97439        1.24202
C         -8.79676        0.18540        1.56331
F         -8.26865        1.32525        1.08260
F        -10.01649        0.05224        1.02664
F         -8.94953        0.34690        2.88539
C         -8.24702       -2.28114        1.17292
C         -9.56874       -2.99047        1.30388
F        -10.35459       -2.36915        2.18745
F        -10.21256       -3.03278        0.13148
F         -9.38195       -4.24586        1.71717
C         -6.10030       -2.27590        0.77994
O         -7.19951       -3.08934        0.88431
C         -4.83352       -2.68228        0.51006
C         -3.82728       -1.67322        0.45091
H         -2.22461       -3.03244        0.01048
H          0.12162       -2.40022       -0.34442
H          0.95110        3.18587        2.05537
H          0.90703        5.66610        2.22579
H          1.57992        7.05166        0.28007
H          2.27442        5.95712       -1.83541
H          2.27010        3.48069       -2.01068
H         -1.10175        2.41209        0.45431
H         -3.44584        1.72419        0.78130
H         -5.78904        1.10709        1.10982
H         -4.58941       -3.72618        0.34678
