56
anti_C_NPh_tetClbenz_diCF3.log	Energy: -2335094.5007585
C         -2.58695       -1.55414        2.20922
C         -3.49526       -0.61608        1.70175
C         -4.83813       -0.57608        2.16145
C         -5.70556        0.35525        1.64291
C         -7.09726        0.68303        1.86962
C         -8.01522       -0.00032        2.83264
F         -8.93659       -0.75882        2.21801
F         -7.32491       -0.81409        3.65352
F         -8.67173        0.87223        3.61414
C         -7.40618        1.71297        1.02579
C         -8.71454        2.43389        0.83948
F         -9.73459        1.73837        1.33897
F         -8.69720        3.63298        1.44579
F         -8.96476        2.64341       -0.46081
C         -5.23939        1.27048        0.64199
N         -6.30257        2.09026        0.28805
C         -6.19528        3.15161       -0.66202
C         -6.02824        2.83899       -2.00864
C         -5.88289        3.86532       -2.93498
C         -5.91319        5.19341       -2.51592
C         -6.08039        5.49624       -1.16757
C         -6.21227        4.47488       -0.23234
C         -3.95356        1.28043        0.17524
C         -3.04416        0.32551        0.70085
C         -1.71378        0.26936        0.26767
C         -0.81893       -0.67360        0.77103
C          0.52384       -0.74387        0.30597
C          1.41833       -1.68371        0.76358
C          2.81194       -1.80635        0.28063
C          3.28694       -1.31993       -0.96016
Cl         2.20541       -0.81465       -2.23049
C          4.64846       -1.31663       -1.26969
Cl         5.21267       -0.66709       -2.77076
C          3.74514       -2.48394        1.11082
C          5.11592       -2.46699        0.78853
Cl         6.26442       -3.22180        1.85534
C          5.57879       -1.85602       -0.36865
Cl         7.26821       -1.80111       -0.72602
C          0.98755       -2.53732        1.85352
C          1.96737       -3.33685        2.54390
C          3.27370       -3.25416        2.24568
C         -0.31010       -2.50526        2.30272
C         -1.26591       -1.60381        1.76982
H         -2.92290       -2.25697        2.96810
H         -5.15907       -1.28359        2.91607
H         -6.01963        1.79848       -2.31748
H         -5.75439        3.62716       -3.98606
H         -5.80559        5.99326       -3.24185
H         -6.10059        6.53039       -0.83894
H         -6.33279        4.69503        0.82260
H         -3.62697        1.99227       -0.57608
H         -1.37454        0.97360       -0.48845
H          0.81933       -0.00355       -0.42258
H          1.63178       -3.96736        3.36236
H          3.99828       -3.81444        2.82111
H         -0.60362       -3.15599        3.12314
