44
anti_O_O_3-OMe_p-OMebenz.log	Energy: -768486.0279255
C         -2.78612       -1.78161       -0.08718
C         -1.68907       -0.97441        0.21452
C         -0.36482       -1.34520       -0.17601
C          0.67954       -0.52755        0.13872
C          2.11830       -0.56319       -0.07950
C          2.98769       -1.44983       -0.69626
C          4.35180       -1.14579       -0.71349
O          5.14431       -2.06094       -1.33569
C          6.52965       -1.81452       -1.38755
C          2.61202        0.60755        0.50908
C          3.95350        0.92576        0.50282
C          4.82742        0.03112       -0.11911
C          0.44513        0.69191        0.85515
O          1.61633        1.36892        1.07336
C         -0.78504        1.09895        1.25310
C         -1.90060        0.25886        0.93562
C         -3.19858        0.60273        1.30753
C         -4.30185       -0.20526        1.00638
C         -5.62023        0.16761        1.39766
C         -6.66067       -0.65930        1.07749
C         -8.09186       -0.63037        1.29162
O         -8.70193        0.37792        1.94173
C        -10.10272        0.24391        2.05876
C         -8.59292       -1.75423        0.73058
C         -6.43168       -1.87275        0.36492
O         -7.60681       -2.53117        0.15804
C         -5.19749       -2.28037       -0.03434
C         -4.08971       -1.43869        0.28501
H         -2.62197       -2.70965       -0.63048
H         -0.21076       -2.27413       -0.71832
H          2.64354       -2.36664       -1.16292
H          6.96579       -2.66003       -1.92099
H          6.96873       -1.75745       -0.38270
H          6.75615       -0.88891       -1.93320
H          4.31818        1.83686        0.96348
H          5.88486        0.26679       -0.13248
H         -0.93013        2.02788        1.79414
H         -3.36278        1.53068        1.85074
H         -5.78433        1.09374        1.93993
H        -10.36296       -0.66446        2.61862
H        -10.57571        0.20519        1.06827
H        -10.45672        1.12160        2.59967
H         -9.59330       -2.14827        0.64789
H         -5.05072       -3.20902       -0.57559
