41
anti_O_O_3-CF3_diOMe.log	Energy: -883540.6870956
C          0.11420        1.68289        0.52469
C         -0.97295        0.80755        0.49974
C         -2.31780        1.29048        0.50877
C         -3.34676        0.39143        0.47814
C         -4.79026        0.47690        0.47699
O         -5.53298        1.62200        0.51511
C         -5.55117        2.31749       -0.72289
C         -5.24362       -0.80693        0.45338
O         -6.43422       -1.38481        0.45499
C         -7.56715       -0.52339        0.49589
C         -3.06604       -1.00925        0.45318
O         -4.23768       -1.72337        0.44704
C         -1.81815       -1.53311        0.44551
C         -0.71900       -0.61502        0.46506
C          0.59894       -1.06679        0.45495
C          1.68934       -0.18956        0.47806
C          3.02850       -0.67651        0.46640
C          4.05835        0.22273        0.49058
C          5.50572        0.14025        0.48977
C          6.32742       -1.09377        0.45594
F          6.07863       -1.82358       -0.64615
F          7.64086       -0.81193        0.47058
F          6.06840       -1.88958        1.50879
C          5.95960        1.40823        0.52378
C          3.78346        1.62084        0.52730
O          4.96175        2.32720        0.54717
C          2.53255        2.14815        0.54007
C          1.43728        1.23200        0.51486
H         -0.07497        2.75367        0.55268
H         -2.50323        2.35981        0.55022
H         -6.04845        1.72183       -1.50015
H         -4.53627        2.55869       -1.06066
H         -6.10893        3.24051       -0.55438
H         -8.43163       -1.18530        0.53568
H         -7.61620        0.09730       -0.40432
H         -7.53809        0.11812        1.37983
H         -1.64722       -2.60418        0.42912
H          0.78896       -2.13740        0.42879
H          3.21390       -1.74578        0.43902
H          6.96298        1.80641        0.53532
H          2.36190        3.21890        0.56844
