50
anti_O_NPh_3-Cl_m-CF3benz.log	Energy: -1257119.8035953
C         -2.90875       -1.73230        0.18517
C         -1.84792       -0.82690        0.13293
C         -0.49328       -1.27138        0.08210
C          0.51810       -0.35722        0.03387
C          1.96530       -0.47565       -0.03559
C          2.83255       -1.56269       -0.06287
C          4.20097       -1.33506       -0.12212
C          2.47977        0.83480       -0.07232
C          3.84756        1.07846       -0.12026
C          4.69387       -0.02544       -0.14779
C          6.18327        0.18991       -0.14346
F          6.82199       -0.72973       -0.88751
F          6.52158        1.39915       -0.62310
F          6.69094        0.10484        1.09988
C          0.22488        1.05287        0.03733
N          1.43138        1.75019       -0.02910
C          1.56718        3.16052       -0.04124
C          1.02950        3.91933        0.99855
C          1.15768        5.30387        0.97937
C          1.83854        5.93134       -0.06083
C          2.38259        5.16971       -1.09153
C          2.23878        3.78628       -1.09148
C         -1.05346        1.52767        0.07370
C         -2.12843        0.58908        0.12514
C         -3.45874        1.00706        0.16774
C         -4.52502        0.10261        0.21928
C         -5.87601        0.55544        0.26220
C         -6.88027       -0.37016        0.31225
C         -8.32476       -0.32749        0.36439
Cl        -9.29596        1.09447        0.37982
C         -8.75887       -1.60210        0.39837
C         -6.57675       -1.76431        0.32110
O         -7.73178       -2.49996        0.37374
C         -5.31231       -2.25758        0.28184
C         -4.24134       -1.31453        0.22905
H         -2.69093       -2.79804        0.19098
H         -0.28550       -2.33823        0.07779
H          2.44627       -2.57709       -0.03894
H          4.89238       -2.16952       -0.15237
H          4.24397        2.08677       -0.13650
H          0.52072        3.41817        1.81609
H          0.73587        5.89248        1.78821
H          1.94503        7.01156       -0.06795
H          2.91055        5.65361       -1.90736
H          2.63812        3.18591       -1.90311
H         -1.26856        2.59142        0.05921
H         -3.67641        2.07270        0.16035
H         -6.09142        1.61982        0.25457
H         -9.75272       -2.02054        0.44057
H         -5.11440       -3.32410        0.28962
