39
anti_C_C_2-Cl_3-CF3.log	Energy: -1031020.3434466
C         -2.71885       -0.09075        1.64394
C         -3.89287       -0.26533        0.90574
C         -5.17016       -0.13300        1.50052
C         -6.33289       -0.30465        0.77384
C         -7.66225       -0.17907        1.33918
C         -7.82688        0.15626        2.79759
F         -7.25131       -0.76785        3.59146
F         -7.25789        1.33797        3.10637
F         -9.11572        0.23608        3.16137
C         -8.76798       -0.35979        0.57082
C         -6.23563       -0.62894       -0.63524
C         -7.44138       -0.80856       -1.39702
C         -8.66049       -0.67964       -0.81952
C         -4.99554       -0.76102       -1.22771
C         -3.79813       -0.58834       -0.49743
C         -2.53764       -0.71947       -1.08695
C         -1.36322       -0.54500       -0.34940
C         -0.08177       -0.67511       -0.93531
C          1.07249       -0.50077       -0.19793
C          2.37568       -0.63243       -0.79119
C          3.48517       -0.45380       -0.03443
Cl         5.07321       -0.61165       -0.74657
C          0.97816       -0.17696        1.20886
C          2.19664       -0.00103        1.95243
C          3.40966       -0.13259        1.36123
C         -0.26381       -0.04634        1.79612
C         -1.45741       -0.22136        1.05645
H         -2.78928        0.15271        2.70150
H         -5.21016        0.11013        2.55573
H         -9.75228       -0.26118        1.01323
H         -7.34988       -1.05133       -2.45228
H         -9.56665       -0.81645       -1.40029
H         -4.93418       -1.00457       -2.28590
H         -2.46911       -0.96293       -2.14471
H         -0.01168       -0.91850       -1.99287
H          2.45549       -0.87507       -1.84588
H          2.12818        0.24211        3.00908
H          4.32785        0.00018        1.92233
H         -0.33430        0.19709        2.85378
