43
anti_C_C_2-CN_benz.log	Energy: -685433.8234119
C         -2.26876        1.36561        0.51226
C         -3.48157        0.68912        0.61622
C         -4.71396        1.37899        0.78679
C         -5.91691        0.72463        0.89094
C         -7.19828        1.42707        1.06843
C         -7.29126        2.82645        1.14729
C         -8.51001        3.45950        1.31440
C         -8.39009        0.67389        1.16511
C         -9.61939        1.33129        1.33444
C         -9.68580        2.70925        1.40902
C         -5.92247       -0.72400        0.82260
C         -7.18071       -1.43116        0.92917
C         -8.34206       -0.77238        1.09010
C         -4.74551       -1.41302        0.65843
C         -3.49432       -0.75047        0.55001
C         -2.29543       -1.43826        0.38390
C         -1.07115       -0.76187        0.27901
C          0.15065       -1.44754        0.11092
C          1.35279       -0.76949        0.00870
C          2.59428       -1.46291       -0.16145
C          3.76925       -0.77439       -0.26008
C          5.00515       -1.48474       -0.42998
N          6.00824       -2.05002       -0.56710
C          1.36819        0.67367        0.07408
C          2.63163        1.35132       -0.03515
C          3.78883        0.66455       -0.19564
C          0.17829        1.35707        0.23850
C         -1.05695        0.68036        0.34478
H         -2.25838        2.45211        0.56203
H         -4.66584        2.46216        0.83228
H         -6.39798        3.43755        1.07787
H         -8.54933        4.54300        1.37190
H        -10.52582        0.73563        1.40670
H        -10.64268        3.20499        1.54011
H         -7.16072       -2.51625        0.87503
H         -9.27904       -1.31736        1.16841
H         -4.76554       -2.49941        0.60908
H         -2.30627       -2.52467        0.33417
H          0.14197       -2.53394        0.06128
H          2.58985       -2.54765       -0.21122
H          2.64174        2.43650        0.01400
H          4.73985        1.17933       -0.27760
H          0.18721        2.44349        0.28811
