37
anti_S_O_p-CNbenz_diF.log	Energy: -1009839.3045429
C         -3.79131        0.62741       -0.71209
C         -4.80278       -0.22853       -0.26400
C         -6.17957        0.09983       -0.43964
C         -7.12735       -0.77212        0.01700
C         -8.56762       -0.81426        0.03615
F         -9.39001        0.10960       -0.45134
C         -8.90787       -1.96643        0.64117
F        -10.07681       -2.48376        0.91049
C         -6.73609       -1.98847        0.65749
O         -7.84664       -2.70940        1.03414
C         -5.44706       -2.35654        0.85393
C         -4.43257       -1.46436        0.38694
C         -3.07824       -1.76496        0.54822
C         -2.07306       -0.90696        0.09917
C         -0.69267       -1.21981        0.26711
C          0.27291       -0.36351       -0.18129
C          1.72466       -0.49861       -0.10670
C          2.46769       -1.53870        0.44229
C          3.86138       -1.47601        0.41213
C          4.63282       -2.54758        0.97709
N          5.25423       -3.41300        1.43419
C          2.39296        0.59661       -0.68160
C          3.78410        0.66408       -0.71414
C          4.51647       -0.37637       -0.16506
C         -0.10801        0.86278       -0.82758
S          1.29624        1.81207       -1.32376
C         -1.41348        1.20411       -1.01021
C         -2.44007        0.32426       -0.54956
H         -4.06944        1.55754       -1.20216
H         -6.45695        1.02813       -0.92859
H         -5.18728       -3.28821        1.34461
H         -2.79907       -2.69489        1.03819
H         -0.42444       -2.15172        0.75830
H          1.97669       -2.39560        0.89204
H          4.29057        1.51346       -1.16014
H          5.60053       -0.34738       -0.17818
H         -1.69354        2.13247       -1.49943
