56
anti_C_NPh_tetFbenz_tetFbenz.log	Energy: -1353057.7942028
C         -2.79767       -1.75827       -0.07921
C         -1.74762       -0.84168       -0.02938
C         -0.41142       -1.26115        0.24462
C          0.58679       -0.33240        0.28682
C          2.01623       -0.42013        0.51650
C          2.85889       -1.48478        0.79500
F          2.37753       -2.72733        0.88137
C          4.21322       -1.26146        0.98785
F          5.04197       -2.27145        1.25283
C          2.53116        0.88929        0.42844
C          3.88702        1.12096        0.63752
F          4.42031        2.34541        0.58883
C          4.71530        0.03825        0.90750
F          6.01528        0.24316        1.10097
C          0.30372        1.06058        0.06371
N          1.49805        1.77892        0.16166
C          1.61424        3.17547       -0.08081
C          0.92319        4.06968        0.73441
C          1.00542        5.43507        0.48159
C          1.78782        5.90567       -0.56931
C          2.48236        5.00706       -1.37540
C          2.38870        3.64018       -1.14135
C         -0.95363        1.50819       -0.21468
C         -2.01907        0.55864       -0.26560
C         -3.32898        0.95257       -0.54005
C         -4.38102        0.03157       -0.58997
C         -5.71147        0.44056       -0.86884
C         -6.76026       -0.45346       -0.92092
C         -8.15281       -0.06906       -1.20620
C         -8.57843        1.24541       -1.45713
F         -7.73224        2.28479       -1.45772
C         -9.90005        1.56119       -1.72128
F        -10.24862        2.82388       -1.95256
C         -9.15258       -1.07681       -1.23508
C        -10.48283       -0.73771       -1.50357
F        -11.42039       -1.69177       -1.52922
C        -10.86886        0.56378       -1.74635
F        -12.13662        0.87137       -2.00011
C         -6.47658       -1.85358       -0.68106
C         -7.54767       -2.82156       -0.72747
C         -8.81532       -2.46107       -0.98901
C         -5.19176       -2.26498       -0.40965
C         -4.10854       -1.35641       -0.35334
H         -2.59096       -2.81119        0.09891
H         -0.20252       -2.31277        0.41107
H          0.33160        3.68954        1.56147
H          0.46630        6.13194        1.11570
H          1.85731        6.97206       -0.75988
H          3.09235        5.37002       -2.19659
H          2.91364        2.93045       -1.77262
H         -1.15780        2.55799       -0.39853
H         -3.53867        2.00447       -0.72001
H         -5.87547        1.49381       -1.04146
H         -7.30032       -3.86328       -0.54326
H         -9.61142       -3.19498       -1.02171
H         -4.99955       -3.32080       -0.23250
