41
anti_S_NPh_C_diF.log	Energy: -988071.6870315
C          0.70962        0.22803       -1.91540
C          2.05888        0.26597       -1.54893
C          3.09256        0.31791       -2.52529
C          4.39927        0.34847       -2.11956
C          5.65203        0.41805       -2.81723
F          5.80700        0.45533       -4.14183
C          6.63424        0.43705       -1.88966
F          7.94120        0.48290       -2.05811
C          4.73047        0.32843       -0.71673
N          6.11984        0.38631       -0.60131
C          6.88251        0.31105        0.59117
C          7.87750        1.25464        0.84374
C          8.62320        1.16932        2.01411
C          8.36500        0.16351        2.94146
C          7.36498       -0.77128        2.68731
C          6.63052       -0.70937        1.50843
C          3.76987        0.29473        0.25266
C          2.40185        0.25852       -0.14517
C          1.37376        0.21699        0.80031
C          0.02715        0.18042        0.43192
C         -1.01396        0.13830        1.40196
C         -2.32740        0.10218        1.01252
C         -3.52299        0.05737        1.82943
C         -4.65549        0.03048        1.10224
C         -2.65231        0.10691       -0.39058
S         -4.39514        0.05631       -0.63054
C         -1.68783        0.14684       -1.35419
C         -0.31469        0.18510       -0.96902
H          0.45249        0.23307       -2.97238
H          2.83751        0.33792       -3.58044
H          8.05954        2.04895        0.12792
H          9.40094        1.90181        2.20650
H          8.94252        0.10751        3.85881
H          7.16387       -1.56338        3.40195
H          5.86863       -1.45053        1.28926
H          4.02456        0.30162        1.30764
H          1.63038        0.21337        1.85755
H         -0.75287        0.13551        2.45728
H         -3.50285        0.04693        2.91299
H         -5.67016       -0.00417        1.47717
H         -1.94077        0.15049       -2.41068
