45
anti_O_NPh_3-OMe_3-F.log	Energy: -794986.8251209
C          0.33742        0.72701       -1.87850
C         -0.95403        0.49201       -1.39200
C         -2.10496        0.76711       -2.17851
C         -3.34758        0.52355       -1.65671
C         -4.68337        0.65349       -2.16810
F         -4.98352        1.12083       -3.38202
C         -5.56197        0.24752       -1.22570
C         -3.50114        0.00311       -0.32325
N         -4.86388       -0.14578       -0.08248
C         -5.47000       -0.64584        1.09026
C         -6.49201       -1.59185        0.99401
C         -7.10858       -2.06545        2.14678
C         -6.69716       -1.61871        3.39943
C         -5.67263       -0.68042        3.49225
C         -5.06628       -0.18282        2.34430
C         -2.41694       -0.29715        0.45655
C         -1.11442       -0.05320       -0.06361
C          0.03131       -0.33185        0.68894
C          1.31879       -0.09853        0.20315
C          2.47265       -0.39023        0.99134
C          3.70833       -0.14108        0.46694
C          5.06866       -0.29666        0.93774
O          5.35601       -0.78885        2.15737
C          6.73449       -0.87170        2.45108
C          5.87765        0.13346       -0.05646
C          3.84625        0.40152       -0.84657
O          5.16424        0.56488       -1.15616
C          2.78815        0.69943       -1.64404
C          1.47843        0.45103       -1.12636
H          0.45275        1.13825       -2.87895
H         -1.99108        1.15771       -3.18536
H         -6.64118        0.23280       -1.24582
H         -6.78702       -1.96423        0.01763
H         -7.90376       -2.80009        2.06387
H         -7.17317       -1.99829        4.29801
H         -5.35269       -0.31740        4.46425
H         -4.29497        0.57735        2.41178
H         -2.52515       -0.72298        1.44871
H         -0.08443       -0.74459        1.68887
H          2.35753       -0.80290        1.98897
H          7.20158        0.12186        2.41832
H          7.24652       -1.53440        1.74044
H          6.81586       -1.28162        3.45789
H          6.94983        0.20135       -0.15008
H          2.92121        1.11110       -2.63888
