33
anti_S_O_2-Cl_3-CF3.log	Energy: -1230922.9562236
C          1.59333       -1.01024        0.06429
C          2.67920       -0.13006        0.03745
C          4.02068       -0.61384        0.04723
C          5.04704        0.28803        0.01994
C          6.49439        0.20849        0.01814
C          7.31789       -1.02496        0.05141
F          7.07119       -1.75311        1.15467
F          7.05629       -1.82107       -1.00027
F          8.63022       -0.74108        0.03356
C          6.94515        1.47739       -0.01806
C          4.76920        1.68667       -0.01783
O          5.94530        2.39450       -0.04061
C          3.51802        2.21159       -0.02895
C          2.42435        1.29264       -0.00089
C          1.10210        1.74186       -0.00984
C          0.01934        0.85970        0.01705
C         -1.32560        1.32667        0.00766
C         -2.36900        0.43925        0.03468
C         -3.78993        0.71201        0.03090
C         -4.52198       -0.41629        0.06391
Cl        -6.24145       -0.51357        0.07116
C         -2.09773       -0.97517        0.07283
S         -3.59083       -1.90854        0.10269
C         -0.82657       -1.46667        0.08297
C          0.27346       -0.55815        0.05525
H          1.78554       -2.08031        0.09304
H          4.20895       -1.68245        0.07577
H          7.94761        1.87787       -0.03184
H          3.34502        3.28186       -0.05789
H          0.90931        2.81182       -0.03860
H         -1.51418        2.39656       -0.02114
H         -4.21739        1.70652        0.00461
H         -0.63029       -2.53456        0.11171
