39
anti_S_S_3-F_m-CF3benz.log	Energy: -1303848.5516249
C         -2.84921       -1.62317       -0.11600
C         -1.83414       -0.68017        0.04455
C         -0.45966       -1.02738       -0.10885
C          0.51765       -0.08684        0.05344
C          1.96412       -0.24238       -0.06084
C          2.69430       -1.39354       -0.36133
C          4.07729       -1.33692       -0.42119
C          2.64783        0.95993        0.17747
C          4.03521        1.02876        0.12016
C          4.74110       -0.12965       -0.18072
C          6.24024       -0.08360       -0.30677
F          6.81269       -1.18958        0.19855
F          6.62182       -0.00080       -1.59387
F          6.76909        0.97273        0.33128
C          0.15676        1.26666        0.38275
S          1.57264        2.30755        0.54558
C         -1.14188        1.64515        0.53862
C         -2.18131        0.67877        0.37345
C         -3.52511        1.01666        0.52256
C         -4.54601        0.07292        0.36197
C         -5.91518        0.42314        0.51519
C         -6.88266       -0.53130        0.34962
C         -8.31702       -0.40291        0.45582
F         -8.86968        0.77527        0.75386
C         -9.00714       -1.53342        0.23527
C         -6.53163       -1.88261        0.02292
S         -7.96479       -2.89609       -0.13096
C         -5.22844       -2.25795       -0.13262
C         -4.19826       -1.28712        0.03325
H         -2.58433       -2.64848       -0.36417
H         -0.20558       -2.05461       -0.35749
H          2.18214       -2.33306       -0.54515
H          4.64992       -2.22935       -0.64859
H          4.55904        1.95895        0.30914
H         -1.40786        2.66850        0.78689
H         -3.79004        2.04180        0.77069
H         -6.18693        1.44498        0.76258
H        -10.08050       -1.65464        0.26521
H         -4.95889       -3.28066       -0.38018
