45
anti_C_O_2-CF3_m-CF3benz.log	Energy: -1049075.6320139
C         -2.71190       -1.83961       -0.50124
C         -1.66385       -1.00467       -0.13284
C         -0.32694       -1.25025       -0.58404
C          0.67176       -0.40807       -0.20092
C          2.10393       -0.32845       -0.44400
C          3.02438       -1.08296       -1.16718
C          4.35451       -0.68622       -1.16765
C          2.53875        0.80016        0.25784
C          3.85733        1.21783        0.27491
C          4.75974        0.44952       -0.45463
C          6.21837        0.82239       -0.48761
F          6.98162       -0.14439        0.05173
F          6.64929        0.99717       -1.74917
F          6.47145        1.95536        0.18463
C          0.38066        0.71300        0.64717
O          1.51853        1.43190        0.91452
C         -0.85769        1.00270        1.10910
C         -1.93230        0.13431        0.72316
C         -3.23319        0.36065        1.15305
C         -4.29559       -0.48170        0.78223
C         -5.61744       -0.25446        1.21676
C         -6.65557       -1.09107        0.84441
C         -8.00258       -0.86357        1.28411
C         -9.00425       -1.69754        0.90565
C        -10.41912       -1.47283        1.35522
F        -10.54675       -0.39901        2.14882
F        -11.24102       -1.29692        0.30397
F        -10.88745       -2.53520        2.03610
C         -6.38882       -2.22431       -0.00764
C         -7.48599       -3.07544       -0.37831
C         -8.74513       -2.82643        0.05807
C         -5.09555       -2.45791       -0.44034
C         -4.02883       -1.61338       -0.06843
H         -2.50864       -2.69352       -1.14354
H         -0.13224       -2.10531       -1.22529
H          2.71119       -1.96256       -1.72029
H          5.09086       -1.25611       -1.72418
H          4.16618        2.09656        0.82677
H         -1.04245        1.85868        1.74886
H         -3.43887        1.21379        1.79517
H         -5.82155        0.59911        1.85908
H         -8.20602       -0.01199        1.92507
H         -7.28495       -3.92879       -1.01995
H         -9.56822       -3.47380       -0.22610
H         -4.89144       -3.31152       -1.08276
