44
anti_S_NPh_2-CF3_2-Cl.log	Energy: -1363403.8503857
C          0.71701        0.22825        2.18248
C          2.06925        0.30298        1.83056
C          3.09080        0.34751        2.81970
C          4.40572        0.41819        2.43794
C          5.65004        0.48224        3.16302
C          6.63075        0.54321        2.22967
Cl         8.32711        0.59955        2.49532
C          4.73927        0.44444        1.03745
N          6.12516        0.52447        0.93593
C          6.85228        0.56370       -0.28485
C          6.79256       -0.52826       -1.14911
C          7.47731       -0.48525       -2.35878
C          8.23138        0.63598       -2.69567
C          8.29170        1.72135       -1.82549
C          7.59356        1.69375       -0.62304
C          3.79638        0.41324        0.04986
C          2.42625        0.33855        0.42995
C          1.40777        0.29903       -0.52640
C          0.05936        0.22517       -0.17144
C         -0.97069        0.18552       -1.15257
C         -2.28581        0.11237       -0.77449
C         -3.46766        0.06289       -1.60542
C         -4.60574       -0.00582       -0.88961
C         -5.98937       -0.07303       -1.45248
F         -5.96530       -0.03588       -2.79243
F         -6.61829       -1.20169       -1.08676
F         -6.74661        0.95171       -1.02873
C         -2.62636        0.07546        0.62328
S         -4.36912       -0.01742        0.85216
C         -1.67280        0.11184        1.59733
C         -0.29712        0.18806        1.22582
H          0.44978        0.20127        3.23660
H          2.81471        0.32802        3.87032
H          5.79196        0.47381        4.23287
H          6.21279       -1.40081       -0.86473
H          7.43011       -1.33431       -3.03350
H          8.77147        0.66422       -3.63694
H          8.87539        2.59835       -2.08710
H          7.61681        2.54073        0.05489
H          4.06879        0.44552       -1.00051
H          1.67412        0.32712       -1.58075
H         -0.70154        0.21408       -2.20530
H         -3.44337        0.07920       -2.68801
H         -1.93529        0.08418        2.65099
