55
anti_NPh_NPh_3-F_3-CF3.log	Energy: -1067074.8527921
C          0.71394       -0.78023       -0.19060
C         -0.67551       -0.83788       -0.05530
C         -1.47355       -1.62886       -0.92922
C         -2.83171       -1.65520       -0.76312
C         -3.90662       -2.34913       -1.43669
C         -3.77372       -3.25343       -2.60037
F         -3.24748       -2.62640       -3.67087
F         -2.95769       -4.29396       -2.33821
F         -4.96335       -3.75839       -2.97447
C         -5.06437       -2.00230       -0.81985
C         -3.44931       -0.88548        0.28303
N         -4.82507       -1.12094        0.21202
C         -5.82353       -0.56751        1.04980
C         -6.78574       -1.40002        1.62068
C         -7.78392       -0.85357        2.42019
C         -7.81208        0.51536        2.67098
C         -6.84323        1.34095        2.10620
C         -5.85476        0.80709        1.28715
C         -2.72487       -0.12786        1.15840
C         -1.30851       -0.08432        1.00375
C         -0.50793        0.67612        1.85814
C          0.88254        0.73403        1.72284
C          1.68154        1.52477        2.59350
C          3.03955        1.54604        2.42251
C          4.11393        2.23550        3.08105
F          3.95652        3.05482        4.12327
C          5.28266        1.90615        2.48920
C          3.66700        0.77326        1.38142
N          5.03759        1.00403        1.45240
C          6.03458        0.46527        0.61034
C          6.04805       -0.90044        0.31964
C          7.03624       -1.42043       -0.50865
C          8.02754       -0.59329       -1.03002
C          8.02073        0.76481       -0.72426
C          7.02280        1.29860        0.08351
C          2.93169        0.01914        0.50810
C          1.51649       -0.02005        0.66432
H          1.18625       -1.34897       -0.98862
H         -0.99666       -2.20951       -1.71306
H         -6.07702       -2.30027       -1.05230
H         -6.73855       -2.47116        1.44887
H         -8.53262       -1.50461        2.86076
H         -8.58615        0.93755        3.30394
H         -6.86417        2.41068        2.29012
H         -5.11667        1.44910        0.81741
H         -3.19478        0.42694        1.96415
H         -0.98070        1.24467        2.65617
H          1.20998        2.10966        3.37762
H          6.29068        2.20597        2.73281
H          5.29746       -1.54926        0.75899
H          7.03978       -2.48289       -0.73232
H          8.80167       -1.00507       -1.66973
H          8.78694        1.41883       -1.12930
H          6.99483        2.36318        0.29547
H          3.39555       -0.53691       -0.29996
