39
anti_S_O_3-Cl_m-CF3benz.log	Energy: -1327313.4227308
C         -2.91707       -1.72555       -0.30414
C         -1.83191       -0.88536       -0.05397
C         -0.49215       -1.30877       -0.31497
C          0.53961       -0.45572       -0.05627
C          1.98707       -0.51872       -0.18469
C          2.89769       -1.47774       -0.62051
C          4.25124       -1.16982       -0.59499
C          2.45480        0.72085        0.26423
C          3.79656        1.05410        0.29966
C          4.68918        0.08042       -0.14017
C          6.16515        0.37682       -0.17585
F          6.88405       -0.64450        0.32113
F          6.59320        0.57629       -1.43517
F          6.48084        1.47358        0.53011
C          0.27443        0.84951        0.47130
O          1.44055        1.54835        0.65989
C         -0.97064        1.31107        0.74061
C         -2.07335        0.43613        0.47893
C         -3.38637        0.83124        0.72793
C         -4.47529       -0.01174        0.47740
C         -5.81065        0.40191        0.73570
C         -6.85339       -0.44797        0.47889
C         -8.27706       -0.24480        0.66163
Cl        -8.92077        1.23750        1.28857
C         -9.03504       -1.29773        0.30475
C         -6.60247       -1.75837       -0.05182
S         -8.10136       -2.64998       -0.29212
C         -5.33550       -2.19345       -0.31327
C         -4.23388       -1.32819       -0.05436
H         -2.73276       -2.71953       -0.70552
H         -0.31730       -2.30346       -0.71541
H          2.55975       -2.44763       -0.97097
H          4.98048       -1.90171       -0.92481
H          4.13042        2.02092        0.65484
H         -1.13638        2.30555        1.14026
H         -3.57230        1.82461        1.12921
H         -5.99646        1.39400        1.13714
H        -10.11304       -1.36607        0.35628
H         -5.14914       -3.18548       -0.71456
