33
anti_C_O_2-Cl_3-Cl.log	Energy: -1106582.4858206
C         -2.60185        0.82077        1.16664
C         -3.81059        0.22452        0.81946
C         -5.05550        0.74891        1.28767
C         -6.21161        0.12735        0.91870
C         -7.62211        0.33296        1.16761
Cl        -8.30774        1.58759        2.12631
C         -8.28636       -0.63672        0.51104
C         -6.17535       -1.02899        0.07725
O         -7.44708       -1.47951       -0.15974
C         -5.03109       -1.57615       -0.40044
C         -3.79684       -0.94974       -0.03303
C         -2.57659       -1.44647       -0.47883
C         -1.35707       -0.84594       -0.12883
C         -0.11771       -1.34802       -0.57915
C          1.07837       -0.74742       -0.22732
C          2.34173       -1.25604       -0.68347
C          3.49248       -0.63953       -0.31690
Cl         5.03420       -1.25276       -0.86711
C          1.06468        0.42143        0.62040
C          2.31990        1.02603        0.97072
C          3.49693        0.52066        0.52278
C         -0.14349        0.92337        1.06851
C         -1.37052        0.32076        0.71773
H         -2.61136        1.70103        1.80541
H         -5.06647        1.62756        1.92571
H         -9.34016       -0.85416        0.42779
H         -5.03939       -2.45432       -1.03689
H         -2.56486       -2.32650       -1.11769
H         -0.10764       -2.22832       -1.21768
H          2.36137       -2.13430       -1.32069
H          2.31237        1.90576        1.60829
H          4.44374        0.97781        0.78785
H         -0.15373        1.80383        1.70715
