51
anti_O_NPh_3-CF3_m-CNbenz.log	Energy: -1026592.7080062
C         -2.59018       -1.96297        0.14963
C         -1.58160       -0.99928        0.09812
C         -0.22226       -1.35922       -0.13991
C          0.73713       -0.38966       -0.18092
C          2.17216       -0.41886       -0.40726
C          3.07664       -1.44846       -0.64565
C          4.42091       -1.14539       -0.81025
C          2.62149        0.91638       -0.33911
C          3.96339        1.24012       -0.48936
C          4.85368        0.18867       -0.72856
C          6.25005        0.48469       -0.89464
N          7.37639        0.72327       -1.03065
C          0.38418        0.99200        0.01795
N          1.54487        1.75923       -0.08435
C          1.61589        3.16841        0.05594
C          1.17291        3.77158        1.23296
C          1.23735        5.15449        1.36431
C          1.76130        5.93332        0.33559
C          2.21122        5.32619       -0.83379
C          2.12910        3.94561       -0.98210
C         -0.90255        1.38776        0.23774
C         -1.92327        0.39060        0.28538
C         -3.25875        0.72636        0.51020
C         -4.27228       -0.23630        0.56179
C         -5.62967        0.13372        0.79356
C         -6.58282       -0.84531        0.83609
C         -8.01751       -0.88342        1.03923
C         -8.91216        0.27433        1.28282
F         -8.56220        0.94312        2.39591
F         -8.86018        1.15937        0.27159
F        -10.19068       -0.11192        1.42304
C         -8.37823       -2.17944        0.96491
C         -6.21543       -2.21052        0.64987
O         -7.33018       -3.00874        0.73277
C         -4.94419       -2.62882        0.42533
C         -3.92704       -1.62724        0.37617
H         -2.32659       -3.00876        0.00813
H          0.03060       -2.40552       -0.29026
H          2.73793       -2.47841       -0.70004
H          5.14538       -1.92940       -0.99907
H          4.31777        2.26228       -0.42130
H          0.78711        3.15249        2.03689
H          0.88974        5.62287        2.27988
H          1.81915        7.01165        0.44527
H          2.61645        5.92892       -1.64051
H          2.45446        3.46469       -1.89954
H         -1.16399        2.43266        0.37108
H         -3.52262        1.77210        0.65026
H         -5.88816        1.17880        0.93218
H         -9.34183       -2.65752        1.05721
H         -4.70069       -3.67675        0.28764
