34
anti_C_S_3-CN_C.log	Energy: -790339.7693294
C          1.21951        1.60720        0.29721
C          0.13875        0.75891        0.07713
C         -1.20779        1.21580        0.19356
C         -2.25309        0.36139       -0.02793
C         -3.67703        0.62153        0.03785
C         -4.42185       -0.46363       -0.24261
C         -1.98812       -1.01261       -0.38211
S         -3.48927       -1.90092       -0.61260
C         -0.72033       -1.49494       -0.50523
C          0.38765       -0.62121       -0.27863
C          1.69984       -1.06823       -0.39247
C          2.79200       -0.21523       -0.17114
C          4.12437       -0.66620       -0.28593
C          5.19243        0.18257       -0.06559
C          6.57072       -0.24728       -0.17484
C          6.85219       -1.60956       -0.52604
N          7.06334       -2.71390       -0.81062
C          7.60354        0.61904        0.05011
C          4.94945        1.56023        0.28965
C          6.07022        2.42793        0.51513
C          7.34781        1.97781        0.40058
C          3.64634        2.01209        0.40462
C          2.54475        1.15998        0.18339
H          1.03412        2.64501        0.56483
H         -1.39098        2.25322        0.46107
H         -4.09368        1.59027        0.28729
H         -5.50230       -0.52483       -0.25934
H         -0.52929       -2.53030       -0.77208
H          1.88803       -2.10535       -0.65978
H          4.30592       -1.70401       -0.55350
H          8.62677        0.26947       -0.03884
H          5.87281        3.46272        0.78204
H          8.18582        2.64456        0.57384
H          3.46369        3.05032        0.67239
