46
anti_O_O_diOMe_diOMe.log	Energy: -815778.5042573
C          0.10484        1.62764        0.47584
C         -1.12243        0.96971        0.34611
C         -2.35710        1.68161        0.41399
C         -3.52657        0.98906        0.27783
C         -4.92796        1.34546        0.30718
O         -5.32761        2.62065        0.49809
C         -6.70828        2.82380        0.73256
C         -5.61491        0.19520        0.10362
O         -6.92305       -0.04804       -0.02324
C         -7.44664       -0.98544        0.91785
C         -3.50725       -0.42304        0.07516
O         -4.78276       -0.90031       -0.03333
C         -2.36730       -1.15546        0.00320
C         -1.12551       -0.45953        0.13897
C          0.09534       -1.13493        0.07570
C          1.32132       -0.47780        0.20674
C          2.55862       -1.18881        0.13980
C          3.73075       -0.49883        0.27776
C          5.13659       -0.84042        0.26694
O          5.66490       -2.08786        0.09159
C          5.52928       -2.91651        1.23632
C          5.80993        0.32944        0.44357
O          7.08552        0.68135        0.50811
C          8.04500       -0.35944        0.36199
C          3.70273        0.91544        0.47075
O          4.98323        1.40345        0.56124
C          2.56702        1.64912        0.54190
C          1.32316        0.95193        0.41227
H          0.10772        2.70449        0.63016
H         -2.35638        2.75573        0.57138
H         -6.82563        3.89044        0.92817
H         -7.04678        2.25086        1.60546
H         -7.30843        2.53694       -0.13688
H         -6.98644       -1.96850        0.78599
H         -8.51668       -1.04723        0.71855
H         -7.27611       -0.63197        1.94173
H         -2.38687       -2.22877       -0.15375
H          0.09210       -2.21144       -0.08158
H          2.55179       -2.26157       -0.03060
H          4.47991       -3.00919        1.54055
H          6.10632       -2.51627        2.08090
H          5.91716       -3.89859        0.95917
H          9.01525        0.13590        0.38555
H          7.90895       -0.88616       -0.58565
H          7.97325       -1.07353        1.18871
H          2.58878        2.72407        0.68665
