47
anti_O_NPh_3-F_tetClbenz.log	Energy: -1973086.4260924
C         -2.89239       -1.69378        0.11091
C         -1.81783       -0.80266        0.08390
C         -0.47249       -1.27601        0.06585
C          0.56163       -0.38084        0.03943
C          2.01357       -0.49491        0.01692
C          2.88071       -1.58177        0.01435
Cl         2.24304       -3.19366        0.04289
C          4.26235       -1.37676       -0.01060
Cl         5.34336       -2.72878       -0.01279
C          2.53445        0.82162       -0.00579
C          3.91375        1.04116       -0.03303
Cl         4.57119        2.64533       -0.06729
C          4.76907       -0.06694       -0.03444
Cl         6.48032        0.18163       -0.06656
C          0.27998        1.02704        0.02956
N          1.48538        1.72724        0.00152
C          1.51441        3.15485       -0.00015
C          1.52482        3.84296        1.20956
C          1.51397        5.23358        1.20583
C          1.48022        5.92736       -0.00142
C          1.45040        5.23167       -1.20765
C          1.46165        3.84099       -1.20979
C         -0.98600        1.53148        0.04671
C         -2.07903        0.61572        0.07457
C         -3.40286        1.05441        0.09307
C         -4.48240        0.16470        0.12016
C         -5.82723        0.63534        0.13860
C         -6.84356       -0.27921        0.16476
C         -8.28359       -0.22437        0.18874
F         -9.00563        0.89294        0.19032
C         -8.74895       -1.48609        0.20875
C         -6.56312       -1.67872        0.17341
O         -7.72549       -2.39908        0.20011
C         -5.30326       -2.18628        0.15681
C         -4.21933       -1.25710        0.12937
H         -2.68935       -2.76227        0.11779
H         -0.29581       -2.34457        0.07379
H          1.55298        3.28374        2.13934
H          1.53282        5.77542        2.14616
H          1.47374        7.01300       -0.00211
H          1.41983        5.77202       -2.14853
H          1.44177        3.28019       -2.13880
H         -1.17046        2.60090        0.03950
H         -3.60421        2.12318        0.08620
H         -6.02791        1.70217        0.13175
H         -9.74917       -1.88822        0.22962
H         -5.11849       -3.25518        0.16389
