59
anti_C_NPh_p-CF3benz_diCF3.log	Energy: -1392992.1874415
C         -2.37499       -1.35330        2.79297
C         -3.27188       -0.52973        2.10221
C         -4.59291       -0.32307        2.58177
C         -5.45113        0.48808        1.87947
C         -6.82093        0.91975        2.06425
C         -7.71996        0.53261        3.19505
F         -8.70165       -0.29975        2.81283
F         -7.02739       -0.09969        4.16087
F         -8.30090        1.59858        3.76959
C         -7.13098        1.72549        1.00479
C         -8.42011        2.43629        0.69163
F         -9.43918        1.93867        1.38998
F         -8.33055        3.74765        0.97245
F         -8.72622        2.32335       -0.60889
C         -4.99772        1.11063        0.66934
N         -6.04774        1.86394        0.16051
C         -5.94799        2.65135       -1.02684
C         -5.85172        2.00822       -2.25825
C         -5.71440        2.76577       -3.41574
C         -5.68213        4.15632       -3.34025
C         -5.77853        4.79055       -2.10489
C         -5.90191        4.03934       -0.94055
C         -3.73358        0.95250        0.17193
C         -2.83294        0.11793        0.88558
C         -1.52450       -0.09614        0.43793
C         -0.63562       -0.91763        1.13151
C          0.69341       -1.13747        0.67888
C          1.57611       -1.94593        1.35440
C          2.95412       -2.18456        0.89917
C          3.47302       -1.59871       -0.26645
C          4.77257       -1.83811       -0.66962
C          5.30716       -1.23294       -1.93763
F          5.46577       -2.16289       -2.89749
F          4.49759       -0.28371       -2.43558
F          6.51351       -0.67053       -1.74297
C          3.79670       -3.03095        1.65306
C          5.11585       -3.26263        1.22525
C          5.60713       -2.67751        0.07880
C          1.12942       -2.59347        2.56987
C          2.04540       -3.44797        3.29304
C          3.30309       -3.65539        2.86243
C         -0.15181       -2.39494        3.02700
C         -1.07303       -1.56356        2.34020
H         -2.70450       -1.84082        3.70769
H         -4.90340       -0.81075        3.49759
H         -5.89073        0.92425       -2.29790
H         -5.64100        2.26930       -4.37812
H         -5.58102        4.74603       -4.24599
H         -5.74979        5.87377       -2.04386
H         -5.96776        4.51889        0.02977
H         -3.41651        1.44540       -0.74153
H         -1.19353        0.39184       -0.47609
H          0.98956       -0.63429       -0.23605
H          2.86013       -0.94166       -0.87049
H          5.75245       -3.91444        1.81715
H          6.62780       -2.85857       -0.24165
H          1.68703       -3.92272        4.20250
H          3.97922       -4.30013        3.41705
H         -0.47451       -2.88736        3.94166
