39
anti_S_S_3-CN_diOMe.log	Energy: -1135307.6190750
C          0.14734        1.42594        0.38278
C         -0.93707        0.55183        0.47156
C         -2.27954        1.02558        0.53716
C         -3.31793        0.13961        0.62677
C         -4.73504        0.42519        0.71613
O         -5.21037        1.70964        0.75195
C         -5.19193        2.27240        2.05727
C         -5.49591       -0.69814        0.76792
O         -6.81660       -0.88440        0.84454
C         -7.66571        0.18732        0.44378
C         -3.05876       -1.27399        0.63918
S         -4.55655       -2.19642        0.71832
C         -1.79324       -1.77167        0.57901
C         -0.68854       -0.86890        0.49639
C          0.62491       -1.33119        0.43418
C          1.71247       -0.45525        0.34726
C          3.04984       -0.93354        0.28498
C          4.09022       -0.04742        0.19929
C          5.51922       -0.31424        0.12550
C          6.06445       -1.63239        0.13413
N          6.47524       -2.71691        0.14366
C          6.26799        0.81320        0.04877
C          3.83400        1.36354        0.17183
S          5.33628        2.27778        0.05806
C          2.56613        1.86507        0.22972
C          1.46533        0.96438        0.31986
H         -0.03915        2.49728        0.36160
H         -2.47492        2.09389        0.50450
H         -4.18482        2.23938        2.48979
H         -5.88207        1.73939        2.72421
H         -5.51181        3.31090        1.95297
H         -8.66228       -0.24803        0.36676
H         -7.35080        0.58842       -0.52343
H         -7.66795        0.99049        1.18542
H         -1.60284       -2.84113        0.58720
H          0.81205       -2.40237        0.45297
H          3.23929       -2.00364        0.30558
H          7.34703        0.86240       -0.01453
H          2.37690        2.93436        0.20846
