40
anti_C_S_3-F_p-CNbenz.log	Energy: -948981.6360777
C         -2.94081       -1.56687       -0.01524
C         -1.90135       -0.64621        0.01832
C         -0.53597       -1.05414       -0.09362
C          0.46923       -0.13363       -0.05837
C          1.91079       -0.34640       -0.15568
C          2.59660       -1.54688       -0.30764
C          3.99029       -1.53606       -0.38101
C          4.70278       -2.77316       -0.53771
N          5.27648       -3.77270       -0.66368
C          2.63497        0.85597       -0.07865
C          4.02594        0.87235       -0.15150
C          4.70163       -0.32833       -0.30302
C          0.15317        1.26448        0.09318
S          1.60587        2.26997        0.11279
C         -1.12817        1.70391        0.20374
C         -2.20371        0.75896        0.16983
C         -3.52864        1.15871        0.27869
C         -4.58550        0.23223        0.24538
C         -5.93190        0.63372        0.35531
C         -6.95617       -0.29480        0.32000
C         -8.33556        0.08009        0.42905
F         -8.59763        1.38965        0.56899
C         -9.34878       -0.81646        0.39630
C         -6.66592       -1.70048        0.16926
C         -7.75708       -2.63422        0.13710
C         -9.04218       -2.20638        0.24624
C         -5.34399       -2.09831        0.06098
C         -4.28428       -1.16916        0.09435
H         -2.71188       -2.62402       -0.12933
H         -0.31724       -2.11284       -0.20735
H          2.06133       -2.48883       -0.36953
H          4.57624        1.80531       -0.09129
H          5.78446       -0.34165       -0.36225
H         -1.35828        2.75922        0.31769
H         -3.75924        2.21534        0.39282
H         -6.16557        1.68734        0.46924
H        -10.37376       -0.47455        0.48338
H         -7.53190       -3.69055        0.02345
H         -9.86019       -2.91923        0.22082
H         -5.11327       -3.15498       -0.05303
