50
anti_C_O_p-CF3benz_diOMe.log	Energy: -981311.1562058
C         -2.67431        0.41651       -0.42272
C         -3.70870       -0.01765        0.40559
C         -5.03600        0.49688        0.27164
C         -6.01536        0.03477        1.10451
C         -7.42639        0.29680        1.28113
O         -8.18097        1.17962        0.56331
C         -8.49437        0.71513       -0.74167
C         -7.82988       -0.49359        2.31403
O         -8.97043       -0.69813        2.95276
C        -10.09661        0.05645        2.51679
C         -5.69909       -0.93884        2.10225
O         -6.81872       -1.24118        2.83494
C         -4.46633       -1.46570        2.28533
C         -3.41950       -1.01039        1.41951
C         -2.12236       -1.50352        1.53687
C         -1.08685       -1.06606        0.70160
C          0.23373       -1.56751        0.81910
C          1.25766       -1.14274        0.00215
C          2.63215       -1.65131        0.10890
C          3.00704       -2.61367        1.06103
C          4.30717       -3.07249        1.14005
C          4.69459       -4.12018        2.14577
F          3.71094       -4.38324        3.02148
F          5.01502       -5.28205        1.54649
F          5.77386       -3.74369        2.85573
C          3.62285       -1.16246       -0.77133
C          4.94106       -1.64380       -0.67504
C          5.28878       -2.58727        0.26596
C          0.96525       -0.15112       -1.00712
C          2.02651        0.30700       -1.87550
C          3.28077       -0.16914       -1.76613
C         -0.31168        0.34843       -1.13663
C         -1.37157       -0.08083       -0.30260
H         -2.88573        1.16345       -1.18478
H         -5.24384        1.25248       -0.48027
H         -9.12985       -0.17950       -0.69741
H         -7.58729        0.47415       -1.30858
H         -9.03239        1.52360       -1.24001
H         -9.89476        1.12853        2.57605
H        -10.90580       -0.21562        3.19369
H        -10.36745       -0.20824        1.48983
H         -4.26770       -2.20156        3.05715
H         -1.90726       -2.24919        2.29911
H          0.41046       -2.31125        1.58968
H          2.27803       -3.01156        1.75557
H          5.69180       -1.25675       -1.35855
H          6.30882       -2.95068        0.33554
H          1.78250        1.05345       -2.62677
H          4.06750        0.18517       -2.42651
H         -0.51652        1.09490       -1.90105
