39
anti_C_O_benz_3-Cl.log	Energy: -914575.7028108
C         -2.40301        0.80111        1.01981
C         -3.57363        0.09724        0.72974
C         -4.85756        0.69692        0.89823
C         -5.97089       -0.03503        0.59988
C         -7.39888        0.19309        0.63138
Cl        -8.18123        1.64663        1.12074
C         -7.99133       -0.93981        0.20843
C         -5.84693       -1.37716        0.12768
O         -7.08638       -1.91244       -0.10547
C         -4.65693       -2.00371       -0.05345
C         -3.47131       -1.26514        0.24978
C         -2.20630       -1.83283        0.09215
C         -1.03693       -1.12393        0.38413
C          0.25004       -1.70041        0.22448
C          1.40701       -1.01186        0.50887
C          2.74735       -1.59681        0.34878
C          2.95295       -2.91013       -0.10716
C          4.22535       -3.43352       -0.24785
C          3.88293       -0.81626        0.66348
C          5.16868       -1.36275        0.51498
C          5.34526       -2.65635        0.06476
C          1.29691        0.34934        0.98686
C          2.50087        1.09157        1.29054
C          3.71937        0.54214        1.13777
C          0.05853        0.92712        1.14892
C         -1.13888        0.22743        0.85985
H         -2.47812        1.82459        1.38026
H         -4.93467        1.71859        1.25820
H         -9.03042       -1.20107        0.07961
H         -4.59800       -3.02503       -0.41391
H         -2.12839       -2.85618       -0.26818
H          0.28847       -2.72311       -0.13678
H          2.10566       -3.53901       -0.35779
H          4.35134       -4.45200       -0.60252
H          6.03009       -0.74729        0.76193
H          6.34441       -3.06652       -0.04543
H          2.39331        2.11225        1.64779
H          4.61514        1.11218        1.36987
H         -0.00865        1.95135        1.50926
