51
anti_S_NPh_2-CN_m-CF3benz.log	Energy: -1229265.8471207
C         -2.82153       -1.82605        0.22431
C         -1.78247       -0.89687        0.16510
C         -0.41876       -1.31194        0.10199
C          0.57158       -0.37600        0.04698
C          2.02022       -0.46288       -0.03491
C          2.91035       -1.53113       -0.07275
C          4.27255       -1.27309       -0.14381
C          2.50530        0.85826       -0.07270
C          3.86674        1.13243       -0.13279
C          4.73629        0.04728       -0.17073
C          6.22110        0.29482       -0.18055
F          6.87093       -0.60754       -0.93549
F          6.52765        1.51313       -0.65782
F          6.74193        0.21475        1.05728
C          0.24804        1.02824        0.05609
N          1.43724        1.75077       -0.01807
C          1.54235        3.16443       -0.03083
C          1.00825        3.90984        1.02020
C          1.10668        5.29685        1.00076
C          1.75429        5.93955       -0.05132
C          2.29492        5.19104       -1.09339
C          2.18074        3.80484       -1.09268
C         -1.03991        1.47556        0.10457
C         -2.09379        0.51401        0.16267
C         -3.43197        0.90364        0.21691
C         -4.47512       -0.02761        0.27525
C         -5.83495        0.37938        0.33020
C         -6.83735       -0.55712        0.38764
C         -8.26213       -0.34770        0.44817
C         -8.96126       -1.50693        0.49522
C        -10.37784       -1.62163        0.55985
N        -11.53244       -1.71854        0.61255
C         -6.50918       -1.95747        0.39213
S         -7.95494       -2.95467        0.47035
C         -5.21598       -2.39113        0.34014
C         -4.16188       -1.43457        0.28002
H         -2.58072       -2.88677        0.22616
H         -0.18813       -2.37393        0.09388
H          2.54670       -2.55382       -0.04801
H          4.98202       -2.09188       -0.18245
H          4.24083        2.14920       -0.15039
H          0.52605        3.39681        1.84651
H          0.68829        5.87561        1.81840
H          1.83798        7.02174       -0.05864
H          2.79726        5.68707       -1.91799
H          2.57818        3.21377       -1.91204
H         -1.27729        2.53454        0.09489
H         -3.67356        1.96408        0.21348
H         -6.07315        1.43975        0.32617
H         -8.73118        0.62885        0.45555
H         -4.97135       -3.44935        0.34336
