55
anti_NPh_NPh_2-F_2-CF3.log	Energy: -1067074.7657690
C          0.48732       -0.76712       -1.13612
C          1.80395       -0.30941       -1.00077
C          2.67009       -0.20314       -2.12201
C          3.95474        0.24719       -1.94899
C          5.06221        0.46788       -2.84388
C          6.09172        0.93037       -2.09122
C          7.45804        1.28993       -2.57645
F          7.60134        0.94490       -3.86241
F          7.69775        2.61289       -2.48943
F          8.41960        0.67070       -1.87407
C          4.41325        0.60848       -0.63578
N          5.73154        1.03489       -0.75196
C          6.55170        1.41248        0.34905
C          6.98425        2.72913        0.48375
C          7.77386        3.08326        1.57299
C          8.11003        2.13362        2.53346
C          7.66064        0.82174        2.40206
C          6.88569        0.45664        1.30727
C          3.61680        0.52870        0.47363
C          2.28298        0.06166        0.31182
C          1.41071       -0.04780        1.40051
C          0.09839       -0.50271        1.26340
C         -0.77797       -0.59955        2.38426
C         -2.05757       -1.05376        2.21501
C         -3.16943       -1.24990        3.11768
C         -4.17935       -1.70949        2.34867
F         -5.40360       -2.05044        2.70816
C         -2.50877       -1.43347        0.89670
N         -3.84199       -1.83749        1.01359
C         -4.66793       -2.35974       -0.01315
C         -4.19890       -3.40325       -0.81137
C         -5.00069       -3.90435       -1.83076
C         -6.27526       -3.38495       -2.04117
C         -6.74345       -2.35322       -1.23212
C         -5.94004       -1.82983       -0.22521
C         -1.71694       -1.34595       -0.20890
C         -0.37827       -0.87653       -0.04911
H          0.12924       -1.04588       -2.12509
H          2.30291       -0.47911       -3.10694
H          5.08617        0.29624       -3.90938
H          6.70328        3.46264       -0.26324
H          8.11807        4.10768        1.67504
H          8.72115        2.41547        3.38536
H          7.92178        0.07777        3.14824
H          6.53715       -0.56382        1.18294
H          3.97861        0.81262        1.45712
H          1.76820        0.23334        2.38888
H         -0.41716       -0.30352        3.36549
H         -3.20367       -1.07425        4.18134
H         -3.21370       -3.81817       -0.62396
H         -4.63146       -4.71355       -2.45323
H         -6.90200       -3.78334       -2.83286
H         -7.73548       -1.94234       -1.39199
H         -6.29132       -1.01172        0.39415
H         -2.07924       -1.61499       -1.19619
