41
anti_S_NPh_3-F_3-F.log	Energy: -988074.3485125
C          0.70008       -0.13469        2.18205
C         -0.68117       -0.23493        1.97865
C         -1.58279       -0.37641        3.06778
C         -2.92628       -0.46637        2.81791
C         -4.08340       -0.63907        3.65066
F         -4.04749       -0.72511        4.98189
C         -5.18767       -0.68146        2.87323
C         -3.43367       -0.40993        1.47138
N         -4.81698       -0.53341        1.53582
C         -5.71964       -0.54208        0.44909
C         -5.62451        0.42791       -0.55058
C         -6.51837        0.41173       -1.61531
C         -7.52336       -0.54990       -1.67793
C         -7.62559       -1.50490       -0.67018
C         -6.72143       -1.51170        0.38629
C         -2.59609       -0.29850        0.39436
C         -1.19548       -0.20414        0.62774
C         -0.29144       -0.08064       -0.43267
C          1.08510        0.01741       -0.22683
C          1.99629        0.14356       -1.31376
C          3.33821        0.23842       -1.06806
C          4.42982        0.37128       -2.00471
F          4.19130        0.41655       -3.31835
C          5.65090        0.44159       -1.45154
C          3.84271        0.21266        0.27581
S          5.60116        0.35178        0.30085
C          3.00440        0.09286        1.34421
C          1.59751       -0.00880        1.12260
H          1.08313       -0.15720        3.19990
H         -1.20124       -0.42071        4.08344
H         -6.22694       -0.77136        3.15105
H         -4.86449        1.19903       -0.47836
H         -6.43810        1.16740       -2.39076
H         -8.22406       -0.55405       -2.50681
H         -8.40351       -2.26109       -0.71244
H         -6.77706       -2.27562        1.15596
H         -2.97059       -0.29065       -0.62395
H         -0.67368       -0.05967       -1.45084
H          1.62065        0.16358       -2.33259
H          6.59330        0.54211       -1.97064
H          3.38256        0.07262        2.36241
