38
anti_O_O_2-OMe_2-OMe.log	Energy: -672108.5382264
C          1.03973       -1.15222        0.00235
C          2.23666       -0.43036        0.00225
C          3.50404       -1.08998        0.00225
C          4.65010       -0.34401        0.00215
C          6.07012       -0.62488        0.00211
C          6.67185        0.58981        0.00199
O          7.93682        0.98409        0.00192
C          8.88859       -0.06742        0.00163
C          4.55087        1.08359        0.00204
O          5.80946        1.63669        0.00195
C          3.38505        1.77227        0.00204
C          2.17286        1.01149        0.00214
C          0.92466        1.63544        0.00214
C         -0.27289        0.91385        0.00224
C         -1.53956        1.57393        0.00224
C         -2.68832        0.83004        0.00234
C         -4.10570        1.11177        0.00232
C         -4.71252       -0.09704        0.00248
O         -6.00723       -0.38190        0.00270
C         -6.38612       -1.75539        0.00120
C         -2.58517       -0.59736        0.00246
O         -3.84632       -1.15094        0.00256
C         -1.42091       -1.28798        0.00246
C         -0.20837       -0.52795        0.00235
H          1.08335       -2.23943        0.00244
H          3.53688       -2.17585        0.00232
H          6.55107       -1.59046        0.00222
H          9.86725        0.41073        0.00126
H          8.77570       -0.68943       -0.89372
H          8.77634       -0.68934        0.89713
H          3.36044        2.85678        0.00196
H          0.88112        2.72252        0.00206
H         -1.57157        2.65967        0.00215
H         -4.60081        2.06971        0.00219
H         -7.47555       -1.75226        0.00153
H         -6.01317       -2.26614        0.89333
H         -6.01371       -2.26403       -0.89236
H         -1.39626       -2.37263        0.00254
