44
anti_S_S_2-OMe_p-OMebenz.log	Energy: -1173839.8343355
C         -2.49302       -1.82771        0.80717
C         -1.59849       -0.85506        0.35585
C         -0.19516       -1.09719        0.29513
C          0.66094       -0.12994       -0.15011
C          2.11455       -0.18576       -0.28449
C          2.96341       -1.24489        0.01250
C          4.33748       -1.10800       -0.18378
O          5.08590       -2.19673        0.13432
C          6.48164       -2.11745       -0.04104
C          2.64744        1.01617       -0.78080
C          4.01271        1.15646       -0.97723
C          4.86103        0.09257       -0.67842
C          0.13907        1.14589       -0.56146
S          1.41372        2.24222       -1.09814
C         -1.19453        1.42189       -0.52071
C         -2.10774        0.42561       -0.05892
C         -3.48200        0.66046        0.00117
C         -4.37949       -0.31188        0.45271
C         -5.78173       -0.06853        0.51287
C         -6.64146       -1.03747        0.95927
C         -8.08068       -0.98492        1.09347
C         -8.59201       -2.14255        1.57179
O         -9.85221       -2.49891        1.83664
C        -10.83761       -1.51296        1.58018
C         -6.11036       -2.31292        1.36972
S         -7.39362       -3.39590        1.90299
C         -4.77771       -2.59040        1.32952
C         -3.86789       -1.59246        0.86725
H         -2.10742       -2.79554        1.12057
H          0.18188       -2.06703        0.61010
H          2.58447       -2.18634        0.39699
H          6.87896       -3.08415        0.27052
H          6.92299       -1.32851        0.58191
H          6.74753       -1.93986       -1.09130
H          4.42839        2.08314       -1.36030
H          5.92633        0.21305       -0.83579
H         -1.58172        2.38761       -0.83305
H         -3.86704        1.62833       -0.31240
H         -6.16180        0.90011        0.19859
H         -8.66897       -0.11340        0.83714
H        -11.79282       -1.96442        1.84630
H        -10.83902       -1.23392        0.51992
H        -10.66202       -0.62164        2.19398
H         -4.38956       -3.55584        1.64182
