43
anti_S_NPh_3-CN_2-CN.log	Energy: -979296.6695667
C          1.07122        1.73070        0.16334
C         -0.11023        0.97939        0.11719
C         -1.38294        1.59941        0.21834
C         -2.51876        0.82918        0.17080
C         -3.92140        1.13666        0.22872
C         -4.58737       -0.04749        0.12005
C         -5.99722       -0.24951        0.14515
N         -7.14775       -0.39066        0.16063
C         -2.41346       -0.59879        0.02366
N         -3.70016       -1.11573       -0.00421
C         -4.04616       -2.48956       -0.11573
C         -3.53299       -3.40302        0.80461
C         -3.86062       -4.74920        0.69030
C         -4.71368       -5.17915       -0.32308
C         -5.23214       -4.26007       -1.23068
C         -4.89104       -2.91493       -1.13877
C         -1.20845       -1.23865       -0.09038
C         -0.02350       -0.45562       -0.04289
C          1.24151       -1.04558       -0.14934
C          2.41502       -0.29375       -0.10365
C          3.69698       -0.90581       -0.21249
C          4.82755       -0.13844       -0.16307
C          6.22090       -0.55169       -0.25313
C          6.61684       -1.91228       -0.41617
N          6.90311       -3.02830       -0.54830
C          7.09021        0.48440       -0.16575
C          4.72936        1.28601       -0.00172
S          6.32681        2.03143        0.03011
C          3.52507        1.91427        0.10641
C          2.32759        1.13820        0.05826
H          1.00277        2.80949        0.28408
H         -1.44455        2.67857        0.32730
H         -4.37908        2.10814        0.34224
H         -2.89011       -3.05212        1.60574
H         -3.45978       -5.46101        1.40509
H         -4.97567       -6.22938       -0.40363
H         -5.89759       -4.58989       -2.02201
H         -5.27563       -2.19644       -1.85532
H         -1.14273       -2.31418       -0.21924
H          1.31117       -2.12388       -0.27156
H          3.76811       -1.98345       -0.33471
H          8.16953        0.41929       -0.20721
H          3.45419        2.99120        0.22814
