53
anti_S_NPh_tetClbenz_benz.log	Energy: -2209903.2026032
C         -3.54283        1.14212       -0.00642
C         -4.58292        0.20910        0.00765
C         -5.94908        0.61844        0.00910
C         -6.93904       -0.32043        0.02522
C         -8.39047       -0.23891        0.01783
C         -9.28330        0.82871        0.01116
C        -10.64806        0.56523        0.02272
C         -8.87396       -1.56077        0.03161
C        -10.23833       -1.83591        0.05461
C        -11.11308       -0.75432        0.04760
C         -6.60964       -1.72280        0.04523
N         -7.79748       -2.45007        0.04897
C         -7.89414       -3.86280        0.05821
C         -7.28595       -4.59531        1.07804
C         -7.37284       -5.98328        1.07758
C         -8.08218       -6.64181        0.07645
C         -8.69702       -5.90702       -0.93391
C         -8.59567       -4.52003       -0.95281
C         -5.31798       -2.16452        0.03228
C         -4.26738       -1.19947        0.01565
C         -2.92482       -1.58522        0.00624
C         -1.88681       -0.65028       -0.00859
C         -0.52327       -1.06402       -0.01757
C          0.49509       -0.14523       -0.03156
C          1.95378       -0.32758       -0.04282
C          2.73671       -1.48986       -0.04182
Cl         1.99961       -3.06080       -0.02452
C          4.13487       -1.41252       -0.05458
Cl         5.08766       -2.85657       -0.05326
C          2.62534        0.91034       -0.05664
C          4.01219        1.00102       -0.06945
Cl         4.75229        2.56618       -0.08637
C          4.77682       -0.16459       -0.06856
Cl         6.50057       -0.06570       -0.08461
C          0.15176        1.25395       -0.03729
S          1.56459        2.30306       -0.05616
C         -1.13657        1.69437       -0.02915
C         -2.20410        0.75033       -0.01445
H         -3.78513        2.20254       -0.01220
H         -6.18396        1.67946       -0.00803
H         -8.91715        1.85135        0.00044
H        -11.35803        1.38592        0.01645
H        -10.60695       -2.85571        0.08329
H        -12.18242       -0.94268        0.06462
H         -6.75475       -4.07087        1.86623
H         -6.89553       -6.55049        1.87079
H         -8.15536       -7.72484        0.08353
H         -9.24678       -6.41509       -1.72025
H         -9.05070       -3.93957       -1.74942
H         -5.07616       -3.22262        0.02932
H         -2.68016       -2.64502        0.01035
H         -0.32016       -2.12569       -0.01320
H         -1.36709        2.75596       -0.03394
