40
anti_S_O_benz_3-OMe.log	Energy: -899319.4975391
C         -3.69001        0.04159        1.13235
C         -4.64793       -0.79892        0.55310
C         -6.02856       -0.68715        0.88795
C         -6.92084       -1.53410        0.29243
C         -8.35339       -1.72686        0.36794
O         -9.13872       -0.97842        1.16413
C        -10.51224       -1.30354        1.11476
C         -8.65524       -2.74002       -0.47531
C         -6.47869       -2.51159       -0.64687
O         -7.53449       -3.23851       -1.10796
C         -5.17612       -2.66507       -1.00561
C         -4.21862       -1.79591       -0.40134
C         -2.85829       -1.88605       -0.71333
C         -1.90804       -1.04589       -0.13288
C         -0.52229       -1.14452       -0.45628
C          0.39099       -0.31106        0.12471
C          1.83683       -0.25571       -0.07256
C          2.63112       -1.04525       -0.90564
C          4.00247       -0.83440       -0.95256
C          2.44295        0.74240        0.70651
C          3.81686        0.95993        0.66507
C          4.59087        0.16328       -0.17075
C         -0.05150        0.67675        1.07327
S          1.28965        1.64035        1.69648
C         -1.36332        0.80845        1.41336
C         -2.33574       -0.05283        0.81782
H         -4.01553        0.79105        1.85038
H         -6.35466        0.06045        1.60443
H        -11.01882       -0.62548        1.80160
H        -10.67942       -2.34195        1.43083
H        -10.90992       -1.16639        0.10027
H         -9.58330       -3.22077       -0.74059
H         -4.86709       -3.41750       -1.72331
H         -2.53173       -2.63523       -1.43119
H         -0.20704       -1.89686       -1.17496
H          2.17645       -1.82154       -1.51451
H          4.62090       -1.44791       -1.60007
H          4.27574        1.73438        1.27161
H          5.66426        0.32054       -0.21428
H         -1.69028        1.55625        2.13027
