41
anti_C_S_2-CN_p-CNbenz.log	Energy: -944588.3009450
C         -2.75386       -1.78048        0.11297
C         -1.78160       -0.78927        0.06595
C         -0.39368       -1.10822       -0.05656
C          0.54443       -0.11973       -0.10105
C          1.99488       -0.23749       -0.22246
C          2.76040       -1.39460       -0.32181
C          4.14783       -1.29110       -0.43115
C          4.94255       -2.48276       -0.53424
N          5.58251       -3.44570       -0.61746
C          2.63338        1.01470       -0.23409
C          4.01770        1.12381       -0.34289
C          4.77310       -0.03412       -0.44144
C          0.13408        1.26015       -0.02371
S          1.51098        2.36301       -0.10001
C         -1.17254        1.61586        0.09340
C         -2.17871        0.59825        0.14228
C         -3.52587        0.91190        0.26106
C         -4.51469       -0.08637        0.30902
C         -5.88373        0.22424        0.42923
C         -6.84897       -0.76861        0.47550
C         -8.24085       -0.45669        0.59752
C         -9.17579       -1.45128        0.64145
C        -10.56796       -1.12204        0.76402
N        -11.69421       -0.86517        0.86283
C         -6.45358       -2.15464        0.39968
C         -7.47535       -3.16381        0.45020
C         -8.78535       -2.83479        0.56626
C         -5.11182       -2.47082        0.28141
C         -4.11886       -1.47038        0.23307
H         -2.45345       -2.82409        0.05548
H         -0.10357       -2.15415       -0.11344
H          2.29230       -2.37357       -0.31532
H          4.50145        2.09475       -0.35097
H          5.85265        0.02430       -0.52720
H         -1.47425        2.65752        0.15109
H         -3.82754        1.95506        0.31868
H         -6.18507        1.26752        0.48666
H         -8.54563        0.58387        0.65497
H         -7.17594       -4.20643        0.39311
H         -9.55404       -3.59884        0.60422
H         -4.81053       -3.51417        0.22401
