30
anti_S_S_C_3-Cl.log	Energy: -1222158.2365532
C          1.37614       -1.11748        0.33951
C          2.51955       -0.34510        0.11906
C          3.82527       -0.90005        0.22623
C          4.92418       -0.11541        0.00382
C          6.33178       -0.45969        0.05599
Cl         6.87225       -2.06097        0.44262
C          7.16132        0.56295       -0.21909
C          4.76382        1.27080       -0.33850
S          6.32280        2.05656       -0.57254
C          3.53022        1.84185       -0.45140
C          2.36828        1.04707       -0.22494
C          1.08379        1.58428       -0.32825
C         -0.05983        0.81206       -0.10791
C         -1.36708        1.36432       -0.21463
C         -2.47199        0.58410        0.00681
C         -3.87339        0.94599       -0.05028
C         -4.69317       -0.08514        0.22720
C         -2.30368       -0.80437        0.34990
S         -3.86223       -1.58602        0.58276
C         -1.06990       -1.37545        0.46296
C          0.09179       -0.58020        0.23626
H          1.49151       -2.16739        0.59896
H          3.94197       -1.94857        0.48526
H          8.24213        0.53218       -0.23736
H          3.41360        2.89030       -0.71049
H          0.96900        2.63434       -0.58778
H         -1.47784        2.41399       -0.47433
H         -4.22101        1.94364       -0.29152
H         -5.77512       -0.06948        0.24919
H         -0.95119       -2.42364        0.72203
