50
anti_O_NPh_diCN_m-CNbenz.log	Energy: -930866.1059112
C         -2.69844       -1.90570        0.26810
C         -1.67799       -0.95758        0.19348
C         -0.31629       -1.34673        0.01932
C          0.65559       -0.39209       -0.04739
C          2.09642       -0.45016       -0.22662
C          2.99433       -1.50192       -0.37820
C          4.34618       -1.22258       -0.51900
C          2.55969        0.88142       -0.22080
C          3.90903        1.18256       -0.34925
C          4.79252        0.10967       -0.50096
C          6.19679        0.38083       -0.64185
N          7.32933        0.59938       -0.75741
C          0.31505        1.00414        0.06071
N          1.48642        1.74962       -0.04786
C          1.57068        3.16500        0.00846
C          1.11775        3.84154        1.14066
C          1.19485        5.22925        1.18940
C          1.74106        5.93894        0.12292
C          2.20102        5.25822       -1.00121
C          2.10688        3.87202       -1.06717
C         -0.97223        1.42713        0.21750
C         -2.00651        0.44582        0.28994
C         -3.34264        0.80973        0.45279
C         -4.36980       -0.13824        0.52738
C         -5.72595        0.26110        0.69449
C         -6.68992       -0.70717        0.76236
C         -8.13057       -0.70514        0.92300
C         -8.97377        0.42804        1.06371
N         -9.62986        1.37683        1.17626
C         -8.50927       -2.01374        0.91172
C         -9.80522       -2.58588        1.03288
N        -10.86855       -3.03427        1.13320
C         -6.33838       -2.08323        0.66693
O         -7.46502       -2.86493        0.76045
C         -5.06654       -2.52936        0.50694
C         -4.03804       -1.54274        0.43281
H         -2.44407       -2.96047        0.19510
H         -0.07298       -2.40268       -0.06235
H          2.64500       -2.52969       -0.38425
H          5.06648       -2.02346       -0.64072
H          4.27313        2.20337       -0.32987
H          0.71480        3.27569        1.97492
H          0.83986        5.75569        2.06985
H          1.80871        7.02128        0.16819
H          2.62399        5.80737       -1.83651
H          2.44092        3.33299       -1.94851
H         -1.22311        2.48091        0.28330
H         -3.59736        1.86440        0.52426
H         -5.97874        1.31470        0.76547
H         -4.83355       -3.58609        0.43758
