33
anti_C_O_diCl_2-Cl.log	Energy: -1394971.2549486
C          0.87240        1.54412        0.57776
C         -0.26435        0.82853        0.21419
C         -1.57497        1.32316        0.50417
C         -2.66309        0.58838        0.12979
C         -4.09895        0.74325        0.24024
C         -4.61691       -0.35533       -0.33946
Cl        -6.24211       -0.82650       -0.56040
C         -2.47329       -0.66147       -0.54502
O         -3.69218       -1.22771       -0.82579
C         -1.26565       -1.19032       -0.85172
C         -0.10594       -0.44058       -0.47054
C          1.17455       -0.90741       -0.74493
C          2.32122       -0.18537       -0.37807
C          3.61961       -0.66207       -0.65808
C          4.74822        0.05087       -0.29570
C          6.09325       -0.40772       -0.56697
Cl         6.30985       -1.92506       -1.38667
C          7.17108        0.33545       -0.18726
Cl         8.80198       -0.17858       -0.49406
C          4.59162        1.31583        0.38705
C          5.76212        2.05461        0.76280
C          7.00274        1.58701        0.48872
C          3.32264        1.78996        0.66504
C          2.16460        1.07331        0.30110
H          0.75726        2.49590        1.09134
H         -1.68292        2.27418        1.01711
H         -4.65246        1.55472        0.68666
H         -1.16861       -2.14112       -1.36407
H          1.29387       -1.85863       -1.25804
H          3.72183       -1.61242       -1.17048
H          5.63629        3.00374        1.27533
H          7.89045        2.14155        0.77053
H          3.21351        2.74221        1.17886
