40
anti_C_O_p-CNbenz_C.log	Energy: -684048.9043223
C          1.16904        1.35935       -1.27294
C          0.22437        0.80658       -0.40586
C         -1.16905        0.83413       -0.71467
C         -2.05979        0.28071        0.16320
C         -3.49833        0.11413        0.21184
C         -3.75593       -0.52481        1.36766
C         -1.58156       -0.31500        1.37321
O         -2.63313       -0.80236        2.09719
C         -0.27255       -0.37468        1.72712
C          0.67820        0.19674        0.82646
C          2.04437        0.17992        1.11044
C          2.98609        0.73498        0.23867
C          4.37573        0.71850        0.52648
C          5.30919        1.26195       -0.32540
C          6.75282        1.25444       -0.04442
C          7.28814        0.69011        1.12105
C          8.65736        0.69721        1.36016
C          9.16854        0.10906        2.56669
N          9.58164       -0.36553        3.54046
C          7.64544        1.83483       -0.97618
C          9.02750        1.83266       -0.71756
C          9.54049        1.27415        0.43233
C          4.85031        1.86885       -1.55473
C          5.81700        2.44437       -2.46281
C          7.13551        2.42930       -2.19233
C          3.50709        1.89561       -1.85276
C          2.53622        1.33976       -0.98391
H          0.83093        1.81804       -2.19950
H         -1.49907        1.29410       -1.64170
H         -4.22335        0.43301       -0.52214
H         -4.67990       -0.85482        1.81886
H          0.04929       -0.83568        2.65470
H          2.38533       -0.27809        2.03619
H          4.67759        0.25300        1.45942
H          6.64374        0.23464        1.86347
H          9.69742        2.28280       -1.44470
H         10.60720        1.27471        0.62780
H          5.44723        2.89450       -3.38022
H          7.84869        2.86602       -2.88574
H          3.17600        2.35559       -2.78126
