44
anti_S_NPh_2-Cl_3-CF3.log	Energy: -1363407.7576299
C          0.41813        1.45721        1.28712
C          1.79320        1.36383        1.04241
C          2.73766        2.04261        1.86006
C          4.07425        1.92158        1.58733
C          5.26842        2.47672        2.18223
C          5.32750        3.36608        3.36403
F          4.61813        4.49672        3.17735
F          4.81448        2.77917        4.46295
F          6.59151        3.72485        3.65104
C          6.32843        2.01511        1.47158
C          4.51786        1.11016        0.48702
N          5.91103        1.18803        0.45149
C          6.77163        0.54588       -0.47309
C          6.63955       -0.82132       -0.71713
C          7.49294       -1.44316       -1.62163
C          8.48904       -0.71362       -2.26566
C          8.62437        0.64769       -2.00830
C          7.76110        1.28321       -1.12220
C          3.64657        0.45496       -0.33759
C          2.25251        0.56684       -0.07169
C          1.30642       -0.08255       -0.87187
C         -0.06353        0.01358       -0.62577
C         -1.02022       -0.65169       -1.44566
C         -2.35920       -0.54095       -1.18105
C         -3.47427       -1.13320       -1.88841
C         -4.65644       -0.80198       -1.33864
Cl        -6.21021       -1.30492       -1.88783
C         -2.79955        0.25585       -0.06358
S         -4.55636        0.24521        0.07172
C         -1.92139        0.90946        0.74721
C         -0.52080        0.80697        0.48838
H          0.07450        2.05740        2.12659
H          2.39071        2.65562        2.68625
H          7.38333        2.19308        1.62574
H          5.88252       -1.39004       -0.18688
H          7.38778       -2.50697       -1.81075
H          9.15785       -1.20472       -2.96530
H          9.39547        1.22389       -2.51006
H          7.84000        2.35107       -0.94181
H          3.98802       -0.13277       -1.18358
H          1.65001       -0.68145       -1.71247
H         -0.67313       -1.24876       -2.28491
H         -3.37229       -1.76907       -2.75896
H         -2.26093        1.50827        1.58744
