41
anti_S_NPh_diCl_2-F.log	Energy: -1502604.9969463
C          0.87712        1.58417        0.10251
C         -0.31692        0.85652        0.07102
C         -1.58375        1.50505        0.11823
C         -2.73357        0.76143        0.08971
C         -4.13705        1.10188        0.10731
C         -4.79233       -0.07759        0.04378
F         -6.09267       -0.30250        0.04177
C         -2.64600       -0.67730        0.01379
N         -3.95042       -1.17253       -0.01449
C         -4.34541       -2.53516       -0.02961
C         -3.82482       -3.41316        0.92080
C         -4.19598       -4.75292        0.89526
C         -5.10038       -5.21225       -0.05850
C         -5.62759       -4.32751       -0.99534
C         -5.24468       -2.99083       -0.99226
C         -1.45807       -1.34469       -0.04814
C         -0.25327       -0.58404       -0.01705
C          0.99745       -1.20403       -0.07086
C          2.18786       -0.47462       -0.03990
C          3.45725       -1.11636       -0.09433
C          4.60488       -0.37246       -0.06066
C          5.98419       -0.81715       -0.10347
Cl         6.41148       -2.48428       -0.21190
C          6.87286        0.19691       -0.04997
Cl         8.58171        0.07014       -0.07654
C          4.53163        1.05965        0.02940
S          6.13558        1.78911        0.05710
C          3.33741        1.71422        0.08347
C          2.12500        0.96254        0.05027
H          0.82961        2.66891        0.16921
H         -1.62299        2.58948        0.17153
H         -4.58526        2.08140        0.16185
H         -3.13992       -3.04005        1.67563
H         -3.78657       -5.43607        1.63295
H         -5.39432       -6.25710       -0.07110
H         -6.33196       -4.68023       -1.74222
H         -5.63564       -2.30072       -1.73215
H         -1.41253       -2.42640       -0.12542
H          1.04630       -2.28856       -0.13902
H          3.50684       -2.19936       -0.16264
H          3.28800        2.79726        0.15136
