44
anti_O_NPh_3-CN_diCN.log	Energy: -834481.3831174
C          0.26066       -0.47602       -1.56481
C         -1.03472       -0.55205       -1.03662
C         -2.15295       -0.82180       -1.86805
C         -3.40168       -0.88477       -1.30619
C         -4.71476       -1.14560       -1.84736
C         -5.02956       -1.40461       -3.20482
N         -5.24594       -1.61364       -4.32514
C         -5.59786       -1.08843       -0.79512
C         -7.01009       -1.26212       -0.83818
N         -8.15829       -1.41108       -0.88186
C         -3.57925       -0.67822        0.10098
N         -4.93642       -0.80877        0.38265
C         -5.53566       -0.66481        1.66746
C         -6.26461       -1.71730        2.21483
C         -6.85264       -1.56021        3.46532
C         -6.69329       -0.37056        4.17020
C         -5.95293        0.67274        3.61952
C         -5.37860        0.53360        2.36120
C         -2.53080       -0.42680        0.94283
C         -1.22597       -0.35600        0.38302
C         -0.10690       -0.09847        1.18340
C          1.18182       -0.02363        0.65636
C          2.30747        0.24119        1.49549
C          3.54675        0.30449        0.92924
C          4.89656        0.54295        1.41843
C          5.29047        0.79680        2.75885
N          5.58423        1.00233        3.86160
C          5.70658        0.47463        0.33416
C          3.70783        0.10870       -0.47479
O          5.03739        0.21804       -0.81042
C          2.68594       -0.14560       -1.32734
C          1.37175       -0.21855       -0.76581
H          0.40013       -0.62387       -2.63293
H         -2.01275       -0.97931       -2.93355
H         -6.36791       -2.64784        1.66605
H         -7.42911       -2.37476        3.89145
H         -7.14817       -0.25503        5.14881
H         -5.83309        1.60403        4.16374
H         -4.81874        1.34640        1.90932
H         -2.67494       -0.28751        2.00928
H         -0.24710        0.04792        2.25171
H          2.16508        0.38718        2.56203
H          6.77621        0.58945        0.23893
H          2.84598       -0.28935       -2.39021
