45
anti_S_NPh_diCl_3-OMe.log	Energy: -1512189.5870866
C          0.76630       -1.38932        1.42061
C         -0.62374       -1.33299        1.26608
C         -1.49365       -2.11221        2.07634
C         -2.84796       -2.02753        1.88893
C         -3.98075       -2.67969        2.50774
O         -3.92822       -3.57862        3.52818
C         -3.52190       -4.87535        3.11824
C         -5.10362       -2.19865        1.91969
C         -3.39366       -1.13550        0.89967
N         -4.77810       -1.25009        0.95228
C         -5.71800       -0.55717        0.15725
C         -5.61208        0.82411       -0.01662
C         -6.54527        1.49507       -0.79901
C         -7.59878        0.80269       -1.39015
C         -7.71065       -0.57194       -1.20087
C         -6.76885       -1.25534       -0.43966
C         -2.59214       -0.38357        0.08380
C         -1.18139       -0.46778        0.25131
C         -0.31021        0.27931       -0.54900
C          1.07491        0.21814       -0.39423
C          1.95177        0.98423       -1.21478
C          3.30509        0.90334       -1.03629
C          4.36397        1.58823       -1.75219
Cl         4.04166        2.69306       -3.03643
C          5.59839        1.27036       -1.30993
Cl         7.08997        1.87122       -1.90235
C          3.84798        0.04443       -0.01930
S          5.60891        0.11381        0.01401
C          3.04644       -0.70575        0.78725
C          1.62979       -0.64093        0.62270
H          1.18322       -2.03918        2.18693
H         -1.07684       -2.76606        2.83741
H         -4.24496       -5.30680        2.41429
H         -3.47845       -5.48810        4.02043
H         -2.53370       -4.85597        2.64204
H         -6.13792       -2.42225        2.13787
H         -4.81257        1.36660        0.47725
H         -6.45662        2.56905       -0.93152
H         -8.32955        1.33190       -1.99346
H         -8.52660       -1.12110       -1.66075
H         -6.83403       -2.33228       -0.31733
H         -3.00231        0.26438       -0.68399
H         -0.72594        0.92966       -1.31540
H          1.53687        1.63196       -1.98177
H          3.46160       -1.35326        1.55431
