53
anti_NPh_NPh_C_2-CN.log	Energy: -851242.0490491
C          0.74524       -1.11340        1.13890
C          2.06046       -0.64126        1.05435
C          2.97954       -0.81514        2.12236
C          4.26213       -0.33986        2.00093
C          5.40056       -0.34023        2.87842
C          6.40982        0.29184        2.21576
C          7.73834        0.51070        2.67949
N          8.81249        0.68451        3.08030
C          4.67037        0.32758        0.79312
N          5.99821        0.70717        0.94920
C          6.79669        1.36986       -0.01903
C          6.91850        0.82605       -1.29788
C          7.69118        1.47870       -2.25148
C          8.35896        2.65682       -1.92655
C          8.24353        3.18780       -0.64521
C          7.45305        2.55501        0.30819
C          3.81580        0.53087       -0.25628
C          2.48362        0.04386       -0.14733
C          1.55976        0.21088       -1.18363
C          0.24805       -0.26093       -1.09838
C         -0.67486       -0.09220       -2.16966
C         -1.95433       -0.56647       -2.05063
C         -3.09748       -0.58107       -2.93329
C         -4.09858       -1.21036       -2.27313
C         -2.36433       -1.22762       -0.83516
N         -3.69388       -1.60600       -1.00411
C         -4.50815       -2.28662       -0.07135
C         -4.56881       -1.85784        1.25598
C         -5.37854       -2.53210        2.16304
C         -6.14721       -3.61772        1.75126
C         -6.09533       -4.03342        0.42375
C         -5.27064       -3.37976       -0.48534
C         -1.51044       -1.43206        0.21166
C         -0.17477       -0.94540        0.10393
H          0.43124       -1.62828        2.04449
H          2.65561       -1.31936        3.02879
H          5.46737       -0.76066        3.87101
H          6.41481       -0.10645       -1.53218
H          7.78372        1.05550       -3.24692
H          8.96988        3.15871       -2.67032
H          8.76159        4.10556       -0.38569
H          7.34284        2.97612        1.30220
H          4.12825        1.05352       -1.15475
H          1.87411        0.72554       -2.08913
H         -0.34739        0.40647       -3.07804
H         -3.15277       -0.16114       -3.92692
H         -5.11675       -1.40236       -2.58313
H         -3.99601       -0.98944        1.56459
H         -5.42044       -2.19480        3.19425
H         -6.78363       -4.13651        2.46119
H         -6.68721       -4.88203        0.09452
H         -5.20077       -3.72235       -1.51334
H         -1.81720       -1.95901        1.10950
