37
anti_C_C_3-CN_diCl.log	Energy: -1165828.8234795
C         -2.65663        0.74825       -0.68051
C         -3.75467        0.29454        0.05449
C         -5.06450        0.76953       -0.19657
C         -6.14920        0.32163        0.52882
C         -7.50137        0.78702        0.29705
Cl        -7.77632        1.96413       -0.95112
C         -8.53683        0.31121        1.04293
Cl       -10.17199        0.84159        0.79820
C         -5.94260       -0.66000        1.57457
C         -7.07376       -1.12410        2.32774
C         -8.31918       -0.66057        2.07553
C         -4.67103       -1.13077        1.82910
C         -3.54818       -0.68321        1.09584
C         -2.25762       -1.15532        1.34749
C         -1.15854       -0.70194        0.61233
C          0.15138       -1.17560        0.86099
C          1.22952       -0.72267        0.13014
C          2.58299       -1.18796        0.35976
C          2.82095       -2.15975        1.38788
N          2.99442       -2.94540        2.22316
C          3.62849       -0.71866       -0.38263
C          1.02834        0.25675       -0.91408
C          2.16442        0.71610       -1.66438
C          3.41436        0.24894       -1.41098
C         -0.24514        0.72779       -1.16719
C         -1.36417        0.27685       -0.43030
H         -2.81083        1.48501       -1.46525
H         -5.20391        1.50415       -0.98204
H         -6.91129       -1.85973        3.10979
H         -9.17629       -1.00761        2.64113
H         -4.52472       -1.86727        2.61551
H         -2.10343       -1.89190        2.13228
H          0.30140       -1.91192        1.64632
H          4.63145       -1.08442       -0.18936
H          1.99912        1.45240       -2.44622
H          4.26354        0.60401       -1.98505
H         -0.39609        1.46463       -1.95261
