36
anti_C_O_2-CN_diCN.log	Energy: -703378.6337163
C         -2.66571        0.69578        1.47244
C         -3.89522        0.28047        0.96654
C         -5.11787        0.79038        1.49924
C         -6.29522        0.35067        0.96749
C         -7.69680        0.62101        1.22524
C         -8.23117        1.50439        2.19921
N         -8.62931        2.23484        3.00610
C         -8.39279       -0.14608        0.34163
C         -9.79718       -0.27017        0.15660
N        -10.94396       -0.35846        0.02004
C         -6.29938       -0.59868       -0.09832
O         -7.59204       -0.88719       -0.46417
C         -5.17899       -1.12273       -0.65014
C         -3.92462       -0.68444       -0.11751
C         -2.72223       -1.16872       -0.62214
C         -1.48372       -0.75029       -0.11243
C         -0.26280       -1.23982       -0.62235
C          0.95275       -0.81947       -0.11142
C          2.19440       -1.31452       -0.62681
C          3.38237       -0.88656       -0.10838
C          4.61857       -1.39218       -0.63557
N          5.62136       -1.79518       -1.05504
C          0.98372        0.14090        0.96731
C          2.26113        0.55933        1.47784
C          3.41731        0.07101        0.96710
C         -0.20573        0.62771        1.47535
C         -1.45380        0.20828        0.96440
H         -2.64513        1.41862        2.28436
H         -5.09810        1.51220        2.31007
H         -5.21992       -1.84274       -1.45969
H         -2.74061       -1.89151       -1.43406
H         -0.28244       -1.96276       -1.43432
H          2.17891       -2.03662       -1.43747
H          2.28261        1.28156        2.28883
H          4.37932        0.38848        1.35407
H         -0.18636        1.35071        2.28731
