37
anti_C_O_2-CF3_3-CN.log	Energy: -799106.1106160
C         -2.78480        0.63836        1.26077
C         -3.95955        0.00248        0.86977
C         -5.23790        0.49932        1.27563
C         -6.35816       -0.16004        0.86593
C         -7.79080        0.01643        1.05528
C         -8.43901        1.03754        1.79926
N         -8.94385        1.88199        2.41300
C         -8.38677       -0.99344        0.37657
C         -6.24970       -1.32458        0.04671
O         -7.50457       -1.81231       -0.23656
C         -5.07479       -1.84971       -0.37439
C         -3.87590       -1.18271        0.03722
C         -2.62432       -1.65130       -0.34751
C         -1.43967       -1.01033        0.04661
C         -0.16808       -1.48296       -0.34201
C          0.99250       -0.84216        0.05223
C          2.28838       -1.31862       -0.34119
C          3.41308       -0.67271        0.05719
C          4.77567       -1.15583       -0.34870
F          4.72900       -2.26521       -1.10119
F          5.43341       -0.21745       -1.05435
F          5.53457       -1.43044        0.72825
C          0.91143        0.33754        0.88035
C          2.13472        0.98262        1.27395
C          3.33907        0.50114        0.88081
C         -0.32838        0.81060        1.26849
C         -1.52153        0.16726        0.87362
H         -2.84730        1.52672        1.88482
H         -5.29962        1.38641        1.89886
H         -9.42943       -1.24443        0.24908
H         -5.03192       -2.73678       -0.99666
H         -2.55955       -2.53949       -0.97157
H         -0.10456       -2.37145       -0.96600
H          2.35222       -2.20512       -0.96365
H          2.07394        1.87025        1.89735
H          4.25770        0.99367        1.18213
H         -0.39209        1.69905        1.89249
