55
anti_O_NPh_p-OMebenz_3-OMe.log	Energy: -900966.6107174
C         -3.12798       -1.99714        1.70578
C         -4.17051       -1.27713        1.10577
C         -5.52780       -1.49577        1.46329
C         -6.51554       -0.77441        0.84434
C         -7.95346       -0.72690        0.99279
O         -8.69715       -1.48145        1.84769
C         -8.84345       -2.82967        1.42969
C         -8.42486        0.21638        0.14098
C         -6.18632        0.20512       -0.15596
N         -7.37669        0.79473       -0.57186
C         -7.52539        1.83070       -1.51866
C         -6.86548        1.76273       -2.74755
C         -7.02245        2.78734       -3.67410
C         -7.85313        3.86952       -3.39579
C         -8.52284        3.92585       -2.17658
C         -8.35369        2.91785       -1.23395
C         -4.88999        0.46503       -0.51166
C         -3.85116       -0.28210        0.11021
C         -2.50643       -0.07084       -0.21892
C         -1.47247       -0.78847        0.37929
C         -0.10582       -0.55617        0.02714
C          0.87516       -1.27995        0.63609
C          2.32746       -1.32675        0.54722
C          3.27953       -0.64726       -0.19709
C          4.62740       -0.96730       -0.01107
O          5.50456       -0.25982       -0.77500
C          6.87861       -0.53129       -0.63209
C          2.72398       -2.31022        1.46197
C          4.04777       -2.64067        1.65990
C          5.00526       -1.95476        0.90879
C          0.53368       -2.26508        1.62087
O          1.65592       -2.88060        2.11221
C         -0.73980       -2.53255        1.99857
C         -1.79238       -1.78629        1.37504
H         -3.37358       -2.74520        2.45646
H         -5.76937       -2.21762        2.23872
H         -9.41426       -3.33778        2.20910
H         -7.87027       -3.32190        1.31025
H         -9.38738       -2.88649        0.47807
H         -9.44478        0.52112       -0.04407
H         -6.24987        0.89932       -2.97762
H         -6.50475        2.72875       -4.62677
H         -7.97896        4.66337       -4.12525
H         -9.16953        4.76757       -1.94807
H         -8.84731        2.97600       -0.26859
H         -4.63646        1.23024       -1.23816
H         -2.26083        0.67983       -0.96726
H          0.12960        0.19559       -0.72141
H          3.01186        0.12094       -0.91472
H          7.39123        0.13897       -1.32326
H          7.11588       -1.57054       -0.89581
H          7.22704       -0.33020        0.38968
H          4.33668       -3.40486        2.37254
H          6.05009       -2.20289        1.05279
H         -0.96560       -3.28398        2.74765
