30
anti_S_S_2-F_diCl.log	Energy: -1572794.2114296
C          1.07805       -1.24297       -0.01420
C          2.25472       -0.48850       -0.01215
C          3.53574       -1.10753       -0.01925
C          4.66845       -0.33985       -0.01701
C          6.05626       -0.75890       -0.02306
Cl         6.51635       -2.42028       -0.03493
C          6.92388        0.27475       -0.01840
Cl         8.63424        0.18216       -0.02308
C          4.56625        1.09295       -0.00751
S          6.15386        1.85485       -0.00650
C          3.35875        1.72601       -0.00050
C          2.16261        0.94950       -0.00261
C          0.90183        1.54988        0.00436
C         -0.27402        0.79597        0.00235
C         -1.55810        1.41254        0.00954
C         -2.69658        0.65198        0.00739
C         -4.07836        1.08434        0.01365
C         -4.91559        0.03635        0.00891
F         -6.23792        0.08349        0.01252
C         -2.58412       -0.78648       -0.00229
S         -4.17070       -1.55714       -0.00345
C         -1.37815       -1.41916       -0.00938
C         -0.18097       -0.64207       -0.00723
H          1.14755       -2.32830       -0.02144
H          3.60677       -2.19135       -0.02644
H          3.28787        2.80983        0.00666
H          0.83279        2.63529        0.01157
H         -1.62294        2.49726        0.01679
H         -4.40552        2.11573        0.02121
H         -1.30564       -2.50289       -0.01665
