39
anti_O_O_2-F_p-CF3benz.log	Energy: -898502.2105508
C         -2.97944       -1.76603        0.16358
C         -1.89662       -0.88558        0.11478
C         -0.55262       -1.36580        0.05583
C          0.47488       -0.46996        0.00905
C          1.92546       -0.56234       -0.05576
C          2.84127       -1.60768       -0.09607
C          4.19470       -1.29467       -0.15851
C          5.23335       -2.38015       -0.19916
F          4.68935       -3.60760       -0.21063
F          6.01252       -2.27631       -1.29146
F          6.05549       -2.31646        0.86450
C          2.38348        0.75966       -0.07818
C          3.72763        1.09108       -0.13985
C          4.63089        0.03728       -0.17999
C          0.19802        0.93412        0.01957
O          1.36202        1.66372       -0.03344
C         -1.05231        1.45357        0.07448
C         -2.14927        0.53542        0.12419
C         -3.46869        0.98371        0.18168
C         -4.55509        0.10406        0.23032
C         -5.89682        0.58796        0.28806
C         -6.92988       -0.30684        0.33396
C         -8.37534       -0.21482        0.39620
C         -8.79096       -1.49224        0.41578
F         -9.99718       -1.99503        0.46836
C         -6.64088       -1.70861        0.32329
O         -7.81609       -2.42521        0.37504
C         -5.39436       -2.23549        0.26984
C         -4.29998       -1.31674        0.22095
H         -2.78739       -2.83661        0.15650
H         -0.36986       -2.43678        0.04898
H          2.51322       -2.64070       -0.08023
H          4.05202        2.12488       -0.15637
H          5.69447        0.24709       -0.22967
H         -1.22579        2.52417        0.08072
H         -3.66052        2.05421        0.18876
H         -6.07681        1.65884        0.29443
H         -8.99668        0.66597        0.42172
H         -5.22349       -3.30651        0.26377
