32
anti_S_S_2-CN_3-CN.log	Energy: -1049488.2976021
C          1.50486       -1.13768        0.43180
C          2.64444       -0.36207        0.20465
C          3.95260       -0.90060        0.35886
C          5.04699       -0.11256        0.12826
C          6.45845       -0.45452        0.22548
C          6.91693       -1.75177        0.60187
N          7.25330       -2.81757        0.91120
C          7.27799        0.58176       -0.07691
C          4.88151        1.25709       -0.26932
S          6.44145        2.04277       -0.50023
C          3.64697        1.81397       -0.42901
C          2.48872        1.01525       -0.19499
C          1.20284        1.53661       -0.34400
C          0.06259        0.76065       -0.11663
C         -1.24475        1.29698       -0.26987
C         -2.34579        0.51159       -0.03992
C         -3.73999        0.86481       -0.13993
C         -4.56390       -0.16689        0.16073
C         -5.98624       -0.12569        0.15118
N         -7.14553       -0.09511        0.14429
C         -2.17590       -0.86129        0.35818
S         -3.72508       -1.65696        0.59206
C         -0.93927       -1.41558        0.51686
C          0.21815       -0.61670        0.28287
H          1.62497       -2.17553        0.73283
H          4.07472       -1.93771        0.65980
H          8.35992        0.56394       -0.07339
H          3.52539        2.85035       -0.72981
H          1.08337        2.57472       -0.64516
H         -1.36201        2.33454       -0.57075
H         -4.09753        1.84701       -0.42445
H         -0.81527       -2.45171        0.81739
