42
anti_S_NPh_2-F_3-CN.log	Energy: -983688.5315959
C          0.36132        0.99113        1.68847
C          1.73922        0.96372        1.44100
C          2.67666        1.36901        2.43034
C          4.01418        1.32358        2.14477
C          5.20736        1.67453        2.89147
C          5.25871        2.16892        4.21936
N          5.27437        2.57393        5.30709
C          6.27650        1.42899        2.07694
C          4.46687        0.86540        0.86273
N          5.86284        0.94042        0.86381
C          6.72707        0.59453       -0.20710
C          6.60583       -0.64939       -0.82603
C          7.46130       -0.98093       -1.87075
C          8.44621       -0.08743       -2.28436
C          8.56909        1.14773       -1.65434
C          7.70425        1.49736       -0.62267
C          3.60405        0.48232       -0.12542
C          2.20761        0.52109        0.14813
C          1.26820        0.13732       -0.81566
C         -0.10347        0.16676       -0.56591
C         -1.05415       -0.22647       -1.55325
C         -2.39519       -0.18952       -1.28391
C         -3.50529       -0.54438       -2.14369
C         -4.67932       -0.37354       -1.51836
F         -5.88178       -0.60554       -2.02135
C         -2.84301        0.25330        0.01525
S         -4.60341        0.21888        0.13649
C         -1.97304        0.63824        0.98860
C         -0.56919        0.60639        0.72581
H          0.00982        1.32435        2.66233
H          2.32523        1.71669        3.39771
H          7.33104        1.54721        2.28365
H          5.85613       -1.35219       -0.47698
H          7.36630       -1.94901       -2.35255
H          9.11631       -0.35357       -3.09560
H          9.33133        1.85075       -1.97519
H          7.77262        2.47162       -0.14810
H          3.95480        0.16221       -1.10127
H          1.61964       -0.19439       -1.79022
H         -0.69860       -0.55684       -2.52565
H         -3.41160       -0.90206       -3.16067
H         -2.32082        0.97006        1.96268
