34
anti_C_O_3-CN_2-F.log	Energy: -649866.6661893
C          1.11168        1.74395       -0.17980
C          0.00088        0.89277       -0.06076
C         -1.32894        1.39966       -0.12237
C         -2.38274        0.53306       -0.00113
C         -3.82756        0.65235       -0.00982
C         -4.26716       -0.60580        0.16105
F         -5.48404       -1.08187        0.23111
C         -2.11944       -0.85834        0.18396
O         -3.30801       -1.54737        0.28224
C         -0.87922       -1.40442        0.25110
C          0.22958       -0.51614        0.12692
C          1.54951       -0.98787        0.18421
C          2.64184       -0.13848        0.06574
C          3.99304       -0.63815        0.12710
C          5.00889        0.24070        0.00541
C          6.50200        0.10837        0.01732
C          7.16581       -1.15769        0.18411
N          7.67184       -2.19025        0.32039
C          7.11853        1.39191        0.57091
C          4.79239        1.64845       -0.18222
C          6.16670        2.22882       -0.26521
C          7.11305        1.20060       -0.85899
C          3.54491        2.16199       -0.24606
C          2.41618        1.27198       -0.12224
H          0.94049        2.80895       -0.32175
H         -1.48778        2.46463       -0.26428
H         -4.43311        1.53702       -0.12516
H         -0.72847       -2.46911        0.39306
H          1.72044       -2.05267        0.32612
H          4.16528       -1.70185        0.26887
H          7.85741        1.58351        1.33448
H          6.36449        3.28511       -0.40731
H          7.84599        1.18368       -1.65159
H          3.36537        3.22455       -0.38769
