39
anti_C_O_2-Cl_tetFbenz.log	Energy: -1163579.1228540
C         -2.90692       -1.76417       -0.19375
C         -1.84968       -0.87345       -0.05745
C         -0.49581       -1.29737       -0.25527
C          0.50775       -0.38951       -0.11150
C          1.95488       -0.43207       -0.22586
C          2.88180       -1.41761       -0.52609
F          2.49193       -2.66418       -0.79443
C          4.23235       -1.09679       -0.54654
F          5.14409       -2.02388       -0.83223
C          2.39070        0.86774        0.05207
C          3.73172        1.20999        0.03763
F          4.15131        2.44402        0.30116
C          4.64820        0.20704       -0.26649
F          5.94584        0.49094       -0.29225
C          0.21026        0.97108        0.23345
O          1.36337        1.71778        0.32815
C         -1.04308        1.43644        0.43396
C         -2.12755        0.50660        0.29043
C         -3.44477        0.90211        0.47831
C         -4.51795        0.00370        0.34109
C         -5.85646        0.40202        0.53084
C         -6.90533       -0.49220        0.39277
C         -8.26985       -0.09006        0.58544
C         -9.26968       -0.99546        0.44148
Cl       -10.93320       -0.51431        0.67465
C         -6.62756       -1.86523        0.04677
C         -7.73194       -2.77269       -0.09033
C         -9.01151       -2.36111        0.09851
C         -5.31691       -2.26791       -0.14197
C         -4.24123       -1.36725       -0.00439
H         -2.69738       -2.79907       -0.45461
H         -0.28697       -2.32981       -0.51574
H         -1.23313        2.47194        0.69380
H         -3.65599        1.93643        0.73923
H         -6.06600        1.43677        0.79167
H         -8.48805        0.94060        0.84596
H         -7.52529       -3.80705       -0.35078
H         -9.84493       -3.04694       -0.00508
H         -5.10712       -3.30285       -0.40276
