43
anti_S_NPh_diCN_2-Cl.log	Energy: -1267681.8649531
C          0.88637        1.61605        0.06225
C         -0.30925        0.88961        0.05222
C         -1.57221        1.54312        0.08895
C         -2.72365        0.79878        0.07973
C         -4.12457        1.13420        0.10217
C         -4.79688       -0.04283        0.07100
Cl        -6.49665       -0.27928        0.10997
C         -2.64156       -0.63912        0.03533
N         -3.94026       -1.13496        0.02903
C         -4.28561       -2.51468       -0.00355
C         -3.93385       -3.32974        1.07076
C         -4.23959       -4.68588        1.03206
C         -4.90744       -5.22036       -0.06681
C         -5.26145       -4.39915       -1.13419
C         -4.94205       -3.04580       -1.11134
C         -1.45529       -1.31387       -0.00965
C         -0.25074       -0.55519        0.00022
C          0.99841       -1.17889       -0.04006
C          2.19012       -0.45017       -0.03034
C          3.45489       -1.09612       -0.07110
C          4.60400       -0.34966       -0.05952
C          5.97781       -0.80823       -0.09435
C          6.32879       -2.18870       -0.14849
N          6.56392       -3.32295       -0.19209
C          6.88040        0.21460       -0.06934
C          8.29520        0.08231       -0.09269
N          9.45083       -0.00941       -0.11102
C          4.53784        1.08322       -0.00676
S          6.14464        1.80194       -0.00257
C          3.34494        1.74300        0.03343
C          2.13280        0.99120        0.02277
H          0.84064        2.70198        0.10159
H         -1.60886        2.62834        0.12099
H         -4.56757        2.11735        0.14511
H         -3.42687       -2.89433        1.92621
H         -3.96450       -5.32303        1.86667
H         -5.15135       -6.27784       -0.09175
H         -5.77873       -4.81417       -1.99342
H         -5.19574       -2.39832       -1.94442
H         -1.41606       -2.39775       -0.05328
H          1.04572       -2.26458       -0.08050
H          3.50480       -2.18110       -0.11131
H          3.29623        2.82715        0.07337
