35
anti_C_O_diCN_3-F.log	Energy: -707769.1471774
C         -2.53652        0.86889        1.01848
C         -3.74174        0.22478        0.75236
C         -4.99237        0.83585        1.07461
C         -6.14359        0.16032        0.79188
C         -7.55447        0.41119        0.94985
F         -8.07794        1.51178        1.47975
C         -8.22245       -0.65303        0.47130
C         -6.10061       -1.13510        0.18467
O         -7.36576       -1.61450       -0.00311
C         -4.94745       -1.76792       -0.14478
C         -3.71883       -1.08990        0.13662
C         -2.49260       -1.67042       -0.17090
C         -1.27818       -1.02089        0.09729
C         -0.03636       -1.61191       -0.21584
C          1.15535       -0.96324        0.05268
C          2.43879       -1.54857       -0.25889
C          2.47651       -2.84594       -0.86720
N          2.46435       -3.89592       -1.35810
C          3.60513       -0.87575        0.02187
C          4.88071       -1.45511       -0.28634
N          5.92786       -1.89241       -0.52131
C          1.13716        0.34407        0.66505
C          2.38360        1.00062        0.93571
C          3.57201        0.42247        0.63032
C         -0.07566        0.93126        0.97546
C         -1.30038        0.28416        0.70864
H         -2.55351        1.85351        1.47964
H         -5.01134        1.81861        1.53491
H         -9.27548       -0.87323        0.39871
H         -4.94593       -2.75023       -0.60430
H         -2.47162       -2.65469       -0.63198
H         -0.02481       -2.59593       -0.67665
H          2.35990        1.98391        1.39651
H          4.51136        0.92236        0.83662
H         -0.08901        1.91587        1.43662
