48
anti_S_O_p-OMebenz_diOMe.log	Energy: -1043003.6155025
C         -3.84489        0.27916       -1.23731
C         -4.84107       -0.36176       -0.49436
C         -6.22614       -0.12149       -0.74466
C         -7.16150       -0.77819        0.00638
C         -8.60642       -0.80521        0.05995
O         -9.45881       -0.08482       -0.72692
C         -9.55823       -0.58980       -2.05033
C         -8.92991       -1.67060        1.06028
O        -10.05738       -2.10662        1.60050
C        -11.26932       -1.58855        1.06279
C         -6.74316       -1.67695        1.03338
O         -7.83772       -2.20505        1.67093
C         -5.44836       -1.94735        1.32383
C         -4.44722       -1.28354        0.54608
C         -3.08847       -1.50599        0.77454
C         -2.09737       -0.86438        0.02826
C         -0.71155       -1.09629        0.26577
C          0.24014       -0.45658       -0.47746
C          1.69441       -0.56034       -0.38667
C          2.44611       -1.33959        0.48416
C          3.83884       -1.30492        0.41907
O          4.48680       -2.10051        1.31032
C          5.89554       -2.10555        1.29416
C          2.34397        0.25752       -1.32704
C          3.72826        0.29474       -1.39509
C          4.47894       -0.48794       -0.52054
C         -0.16264        0.46012       -1.50986
S          1.22174        1.17111       -2.34275
C         -1.47572        0.71274       -1.77176
C         -2.48689        0.05499       -1.00719
H         -4.13942        0.97484       -2.02008
H         -6.51691        0.58407       -1.51752
H        -10.00160       -1.59469       -2.05435
H         -8.57574       -0.63741       -2.53484
H        -10.20326        0.09841       -2.59977
H        -11.29601       -0.49886        1.13870
H        -12.06391       -2.03019        1.66341
H        -11.38799       -1.88423        0.01555
H         -5.17158       -2.63568        2.11533
H         -2.79217       -2.20006        1.55809
H         -0.42491       -1.79235        1.05024
H          1.97603       -1.98169        1.22209
H          6.20260       -2.79888        2.07807
H          6.30581       -1.11074        1.51173
H          6.28745       -2.45505        0.33001
H          4.23389        0.92500       -2.11996
H          5.56012       -0.45107       -0.58259
H         -1.77303        1.40667       -2.55294
