41
anti_S_O_3-OMe_p-CNbenz.log	Energy: -957185.0621890
C         -2.65317       -1.80617       -0.56957
C         -1.56938       -1.05720       -0.11018
C         -0.25236       -1.26969       -0.62315
C          0.77856       -0.51535       -0.14674
C          2.20785       -0.43602       -0.40834
C          3.08741       -1.10056       -1.25002
C          4.43756       -0.73370       -1.21931
C          5.37285       -1.40287       -2.07897
N          6.12759       -1.94339       -2.77346
C          2.68821        0.57223        0.43959
C          4.02021        0.95070        0.48577
C          4.89473        0.28089       -0.35975
C          0.53479        0.47619        0.85624
O          1.70069        1.12359        1.19843
C         -0.68671        0.72744        1.38405
C         -1.78883       -0.05010        0.90231
C         -3.07990        0.14238        1.39028
C         -4.16719       -0.60876        0.92967
C         -5.48146       -0.40495        1.43366
C         -6.51902       -1.15958        0.95742
C         -7.91986       -1.10614        1.33788
O         -8.28170       -0.21037        2.27852
C         -9.65142       -0.19135        2.61978
C         -8.69143       -1.99382        0.67165
C         -6.29439       -2.15675       -0.04747
S         -7.78976       -2.97505       -0.47727
C         -5.04812       -2.38333       -0.55689
C         -3.94828       -1.61265       -0.08001
H         -2.48501       -2.56359       -1.33191
H         -0.09431       -2.02867       -1.38427
H          2.74852       -1.88507       -1.91813
H          4.35862        1.73443        1.15315
H          5.94806        0.53918       -0.36245
H         -0.83557        1.48708        2.14368
H         -3.24965        0.89925        2.15247
H         -5.65829        0.34894        2.19491
H         -9.76867        0.57781        3.38327
H         -9.96847       -1.16195        3.02269
H        -10.26923        0.05810        1.74742
H         -9.75566       -2.15306        0.76978
H         -4.87608       -3.13863       -1.31839
