43
anti_O_O_3-CF3_m-OMebenz.log	Energy: -908091.4056756
C         -2.74194       -1.75157       -0.52182
C         -1.65032       -0.95814       -0.16938
C         -0.33441       -1.25029       -0.64734
C          0.70575       -0.44902       -0.27910
C          2.13376       -0.41579       -0.54496
C          3.03011       -1.18860       -1.28551
C          4.36773       -0.83651       -1.30266
C          2.62117        0.68859        0.15437
C          3.95271        1.07369        0.16228
C          4.82928        0.28464       -0.58605
O          6.15836        0.52113       -0.68498
C          6.69099        1.62986        0.00592
C          0.46814        0.67395        0.58091
O          1.63497        1.35174        0.83408
C         -0.75162        1.00476        1.06738
C         -1.86147        0.17905        0.69544
C         -3.15000        0.44814        1.15091
C         -4.24797       -0.34656        0.79867
C         -5.55667       -0.05003        1.27773
C         -6.59536       -0.85754        0.90396
C         -8.02088       -0.89703        1.16352
C         -8.79909        0.04610        2.00288
F         -8.35814        0.05679        3.27345
F         -8.69724        1.30878        1.55126
F        -10.10309       -0.27555        2.02607
C         -8.50113       -1.96092        0.49060
C         -6.36009       -1.97350        0.04940
O         -7.54025       -2.63430       -0.19023
C         -5.13911       -2.30941       -0.44021
C         -4.03653       -1.48343       -0.06598
H         -2.58132       -2.60771       -1.17323
H         -0.18467       -2.10776       -1.29755
H          2.68726       -2.05525       -1.84228
H          5.09392       -1.41180       -1.86594
H          4.26788        1.94202        0.72600
H          7.75976        1.63257       -0.20983
H          6.53980        1.53781        1.08893
H          6.24789        2.57086       -0.34394
H         -0.89370        1.86239        1.71613
H         -3.31111        1.30405        1.80228
H         -5.71287        0.80535        1.92756
H         -9.50123       -2.35837        0.40498
H         -4.99744       -3.16701       -1.08898
