30
anti_S_S_diF_diCl.log	Energy: -1635040.5940361
C         -0.11921        1.38160        0.26758
C         -1.25518        0.56756        0.26998
C         -2.56625        1.12056        0.27146
C         -3.65790        0.29579        0.27375
C         -5.06508        0.64400        0.27552
Cl        -5.60853        2.27965        0.27493
C         -5.87879       -0.43275        0.27775
Cl        -7.59125       -0.42748        0.28035
C         -3.48291       -1.13022        0.27469
S         -5.02939       -1.97182        0.27753
C         -2.24479       -1.70087        0.27333
C         -1.09000       -0.86390        0.27091
C          0.19934       -1.39957        0.26934
C          1.33478       -0.58609        0.26687
C          2.64780       -1.13680        0.26516
C          3.73412       -0.30676        0.26272
C          5.13449       -0.65111        0.26067
F          5.55008       -1.91754        0.26097
C          5.94362        0.42116        0.25851
F          7.26563        0.41162        0.25633
C          3.56172        1.12041        0.26188
S          5.10938        1.97162        0.25859
C          2.32308        1.68687        0.26347
C          1.16924        0.84610        0.26599
H         -0.24455        2.46183        0.26698
H         -2.69271        2.19929        0.27079
H         -2.11830       -2.77956        0.27404
H          0.32436       -2.47981        0.27009
H          2.78037       -2.21443        0.26582
H          2.19288        2.76517        0.26285
