43
anti_C_S_2-F_m-OMebenz.log	Energy: -962963.1352744
C         -2.91178       -1.56705       -0.31181
C         -1.90047       -0.65133       -0.05250
C         -0.52587       -0.95932       -0.29837
C          0.45227       -0.04570       -0.03643
C          1.89457       -0.16412       -0.21492
C          2.63416       -1.24790       -0.70066
C          4.00926       -1.16554       -0.79514
C          2.58060        0.99332        0.16825
C          3.96728        1.10050        0.08233
C          4.68025        0.00606       -0.40496
O          6.02728       -0.02573       -0.54066
C          6.76190        1.11870       -0.16607
C          0.09148        1.24693        0.49523
S          1.50877        2.26667        0.75739
C         -1.19961        1.58887        0.74642
C         -2.24560        0.64723        0.48020
C         -3.57855        0.95124        0.72103
C         -4.60770        0.02871        0.46096
C         -5.96320        0.32984        0.70317
C         -6.96968       -0.58591        0.44397
C         -8.35224       -0.28672        0.68830
C         -9.29270       -1.22097        0.41612
F        -10.59038       -0.95927        0.63821
C         -6.62361       -1.88341       -0.08848
C         -7.67836       -2.82269       -0.35208
C         -8.97677       -2.50869       -0.10972
C         -5.29509       -2.18978       -0.33039
C         -4.26339       -1.26581       -0.07018
H         -2.65407       -2.54495       -0.71274
H         -0.27678       -1.93876       -0.69898
H          2.12842       -2.15953       -1.00564
H          4.60014       -1.99441       -1.16888
H          4.46394        2.01329        0.38863
H          7.80862        0.87829       -0.35439
H          6.62921        1.35013        0.89849
H          6.47734        1.99253       -0.76597
H         -1.46014        2.56451        1.14667
H         -3.83743        1.92867        1.12191
H         -6.22058        1.30750        1.10404
H         -8.64092        0.67979        1.08768
H         -7.41604       -3.79802       -0.75251
H         -9.78483       -3.20563       -0.30280
H         -5.03671       -3.16751       -0.73135
