38
anti_S_S_3-CN_p-CNbenz.log	Energy: -1145878.6300230
C         -2.71129       -1.79395        0.16852
C         -1.72159       -0.81155        0.15544
C         -0.34337       -1.14168       -0.00447
C          0.60813       -0.16216       -0.01408
C          2.05462       -0.29147       -0.16374
C          2.80408       -1.45125       -0.33237
C          4.19074       -1.35879       -0.45760
C          4.96892       -2.55317       -0.63162
N          5.59557       -3.51827       -0.77189
C          2.70865        0.95218       -0.12277
C          4.09275        1.05003       -0.24733
C          4.83180       -0.11024       -0.41494
C          0.21685        1.21365        0.13832
S          1.60488        2.30394        0.09592
C         -1.08568        1.57749        0.29369
C         -2.09924        0.57040        0.30702
C         -3.44615        0.89180        0.46324
C         -4.44161       -0.09175        0.47684
C         -5.81405        0.24285        0.63685
C         -6.76174       -0.74537        0.64561
C         -8.20476       -0.62909        0.79454
C         -8.86829        0.62234        0.96306
N         -9.37469        1.65677        1.09843
C         -8.84066       -1.82567        0.75614
C         -6.37500       -2.11821        0.49365
S         -7.77865       -3.18117        0.54005
C         -5.06912       -2.48301        0.33760
C         -4.06341       -1.47399        0.32513
H         -2.42400       -2.83658        0.05398
H         -0.06692       -2.18670       -0.11822
H          2.32381       -2.42372       -0.36739
H          4.58861        2.01432       -0.21443
H          5.91062       -0.06053       -0.51418
H         -1.37421        2.61819        0.40819
H         -3.73394        1.93406        0.57791
H         -6.10394        1.28394        0.75174
H         -9.90687       -1.98706        0.84567
H         -4.77965       -3.52343        0.22293
