48
anti_S_NPh_p-CNbenz_3-F.log	Energy: -1080073.0543584
C         -2.96412       -2.05041        1.88391
C         -4.01511       -1.33839        1.28906
C         -5.36639       -1.56648        1.65915
C         -6.35916       -0.84750        1.04638
C         -7.78660       -0.80135        1.19025
F         -8.48434       -1.56631        2.03180
C         -8.28897        0.11657        0.33487
C         -6.04884        0.12369        0.03048
N         -7.24530        0.68891       -0.39300
C         -7.40790        1.70275       -1.36437
C         -6.76631        1.60053       -2.59992
C         -6.93386        2.60276       -3.54892
C         -7.75708        3.69402       -3.28407
C         -8.40855        3.78343       -2.05702
C         -8.22827        2.79829       -1.09237
C         -4.75604        0.38809       -0.33728
C         -3.70913       -0.34464        0.28569
C         -2.36791       -0.12361       -0.05398
C         -1.32811       -0.83334        0.54193
C          0.03517       -0.60201        0.18920
C          1.03783       -1.31109        0.78582
C          2.47850       -1.22355        0.56593
C          3.16876       -0.39088       -0.30880
C          4.56135       -0.46240       -0.36971
C          5.27764        0.39524       -1.27162
N          5.85498        1.08796       -2.00024
C          3.19830       -2.12235        1.37307
C          4.58826       -2.19755        1.31612
C          5.26796       -1.36433        0.44172
C          0.71706       -2.30110        1.77954
S          2.16489       -3.09266        2.41349
C         -0.56660       -2.55745        2.14995
C         -1.63440       -1.82760        1.53972
H         -3.19851       -2.79834        2.63808
H         -5.60148       -2.29798        2.42639
H         -9.31338        0.40049        0.14684
H         -6.15683        0.72935       -2.81706
H         -6.43122        2.51937       -4.50764
H         -7.89161        4.46992       -4.03097
H         -9.04930        4.63264       -1.84035
H         -8.70752        2.88121       -0.12155
H         -4.51529        1.14312       -1.07847
H         -2.13275        0.62543       -0.80694
H          0.25810        0.14999       -0.56362
H          2.63727        0.31171       -0.94247
H          5.13436       -2.89443        1.94313
H          6.34997       -1.40417        0.37916
H         -0.80144       -3.30605        2.90116
