42
anti_C_C_diCl_tetClbenz.log	Energy: -2357896.7492872
C         -2.24669        1.36395        0.56304
C         -3.46954        0.69978        0.58622
C         -4.69191        1.40469        0.77885
C         -5.91583        0.77890        0.77662
C         -7.20728        1.48326        0.94254
C         -7.41981        2.85863        0.68935
Cl        -6.26209        3.82887       -0.18012
C         -8.61801        3.48705        1.03515
Cl        -8.83730        5.18144        0.76594
C         -8.32853        0.72113        1.36685
C         -9.52835        1.36919        1.71749
Cl       -10.86955        0.43980        2.31992
C         -9.66874        2.74493        1.59503
Cl       -11.12932        3.53169        2.07525
C         -5.92244       -0.67043        0.70463
C         -7.14854       -1.37715        0.97778
C         -8.25803       -0.72796        1.36386
C         -4.76138       -1.37150        0.49308
C         -3.50121       -0.72600        0.39696
C         -2.31351       -1.41819        0.18113
C         -1.07859       -0.75354        0.14681
C          0.13145       -1.44743       -0.07329
C          1.34857       -0.79225       -0.10324
C          2.60598       -1.47292       -0.32607
Cl         2.59374       -3.19335       -0.56843
C          3.77819       -0.77741       -0.34563
Cl         5.30812       -1.55494       -0.60919
C          1.38226        0.64002        0.09586
C          2.64550        1.31899        0.06457
C          3.79805        0.64148       -0.14711
C          0.20288        1.32814        0.31192
C         -1.04537        0.67312        0.34574
H         -2.22030        2.44158        0.70667
H         -4.61113        2.46868        0.94501
H         -7.13867       -2.46209        0.92644
H         -9.14765       -1.28391        1.62777
H         -4.79825       -2.45718        0.44530
H         -2.34008       -2.49605        0.04034
H          0.09086       -2.52096       -0.22117
H          2.66222        2.39433        0.21480
H          4.75539        1.14928       -0.17176
H          0.23651        2.40485        0.46023
