34
anti_S_S_3-F_3-OMe.log	Energy: -1067860.9106233
C         -0.53436        1.04226       -0.14804
C         -1.55724        0.11530        0.06575
C         -2.92550        0.45428       -0.13399
C         -3.89875       -0.48071        0.08569
C         -5.33688       -0.33492       -0.05968
O         -5.80922        0.86269       -0.46116
C         -7.21121        0.96232       -0.59086
C         -6.02403       -1.45982        0.23841
C         -3.55437       -1.80484        0.51710
S         -4.99020       -2.79952        0.72284
C         -2.25576       -2.17069        0.72027
C         -1.21731       -1.21771        0.49949
C          0.12614       -1.54387        0.69339
C          1.14992       -0.61674        0.47950
C          2.51723       -0.95567        0.67886
C          3.48870       -0.01762        0.45810
C          4.92141       -0.13868        0.59508
F          5.46766       -1.29234        0.98791
C          5.61759        0.97130        0.30233
C          3.14517        1.30690        0.02698
S          4.58381        2.30502       -0.17964
C          1.84619        1.67120       -0.17555
C          0.80972        0.71645        0.04583
H         -0.79370        2.04665       -0.47502
H         -3.19225        1.45502       -0.46047
H         -7.70808        0.77610        0.37010
H         -7.58754        0.25055       -1.33702
H         -7.41929        1.98082       -0.91910
H         -7.09356       -1.61125        0.21038
H         -1.99388       -3.17302        1.04689
H          0.38516       -2.54834        1.02038
H          2.78286       -1.95687        1.00511
H          6.69066        1.09292        0.33965
H          1.58257        2.67316       -0.50202
