47
anti_C_C_diCN_m-CF3benz.log	Energy: -954733.9573543
C         -2.24925        1.35878        0.49898
C         -3.46091        0.68673        0.63815
C         -4.68952        1.38363        0.80535
C         -5.89073        0.73244        0.94371
C         -7.16802        1.44095        1.11823
C         -7.25776        2.84360        1.15851
C         -8.46892        3.48324        1.32287
C         -8.35783        0.69293        1.25160
C         -9.58484        1.35446        1.41874
C         -9.64323        2.73228        1.45410
C        -10.94754        3.45521        1.64581
F        -11.16391        4.34201        0.65809
F        -11.99668        2.61949        1.67385
F        -10.95569        4.14978        2.79768
C         -5.90012       -0.71718        0.91651
C         -7.15752       -1.41888        1.05921
C         -8.31615       -0.75463        1.21668
C         -4.72635       -1.41262        0.75651
C         -3.47668       -0.75436        0.61305
C         -2.28161       -1.45000        0.45078
C         -1.05892       -0.77809        0.31064
C          0.15639       -1.47652        0.14630
C          1.35727       -0.80540        0.00903
C          2.61324       -1.49977       -0.15970
C          2.61163       -2.93279       -0.18514
N          2.56734       -4.09097       -0.20027
C          3.78998       -0.80083       -0.29341
C          5.03816       -1.48751       -0.46078
N          6.06393       -2.00907       -0.59746
C          1.37811        0.63823        0.03268
C          2.63446        1.31621       -0.11154
C          3.79571        0.63346       -0.26834
C          0.19314        1.33187        0.19310
C         -1.04221        0.66469        0.33515
H         -2.23605        2.44606        0.51760
H         -4.63955        2.46744        0.81950
H         -6.36644        3.45244        1.05947
H         -8.51304        4.56718        1.34907
H        -10.49287        0.76899        1.51936
H         -7.14001       -2.50485        1.03527
H         -9.25306       -1.29428        1.32245
H         -4.74768       -2.49967        0.73805
H         -2.29370       -2.53700        0.43201
H          0.13827       -2.56285        0.12865
H          2.64025        2.40217       -0.09269
H          4.74264        1.14957       -0.37691
H          0.20979        2.41891        0.21088
