39
anti_C_O_diCl_benz.log	Energy: -1202971.1394842
C         -2.88887       -1.74979       -0.25921
C         -1.82950       -0.86917       -0.07975
C         -0.47738       -1.27356       -0.32721
C          0.53256       -0.38061       -0.13968
C          1.98068       -0.41411       -0.28051
C          2.91033       -1.37662       -0.66437
C          4.25783       -1.03036       -0.67797
C          2.42055        0.86454        0.07841
C          3.75439        1.23225        0.07272
C          4.67037        0.25621       -0.31415
C          0.23705        0.95368        0.30278
O          1.38447        1.69190        0.42965
C         -1.01530        1.40081        0.55462
C         -2.10186        0.48339        0.36618
C         -3.41658        0.86341        0.60230
C         -4.49064       -0.02514        0.42131
C         -5.82450        0.36460        0.66139
C         -6.88092       -0.51176        0.48209
C         -8.26002       -0.14554        0.71804
Cl        -8.61733        1.46969        1.25196
C         -9.26247       -1.04958        0.52522
Cl       -10.93148       -0.64971        0.79649
C         -6.60809       -1.85972        0.03816
C         -7.70185       -2.76777       -0.14748
C         -8.97898       -2.38229        0.08551
C         -5.30160       -2.24934       -0.19930
C         -4.21905       -1.36647       -0.02083
H         -2.68493       -2.76457       -0.59349
H         -0.28087       -2.28857       -0.66115
H          2.59057       -2.37506       -0.94680
H          4.99905       -1.76558       -0.97403
H          4.06255        2.23201        0.35647
H          5.72756        0.50230       -0.33281
H         -1.20235        2.41580        0.88777
H         -3.62431        1.87697        0.93678
H         -6.01436        1.37911        0.99432
H         -7.48814       -3.77897       -0.48104
H         -9.80948       -3.06488       -0.05341
H         -5.10429       -3.26544       -0.53316
