39
anti_S_O_2-F_m-CF3benz.log	Energy: -1101172.2042428
C         -2.94123       -1.73463       -0.25339
C         -1.85616       -0.88025       -0.04762
C         -0.51538       -1.31907       -0.27025
C          0.51525       -0.45123       -0.05716
C          1.96366       -0.52155       -0.16960
C          2.87821       -1.50511       -0.53650
C          4.23177       -1.19540       -0.51892
C          2.42772        0.74423        0.20470
C          3.76890        1.07966        0.23073
C          4.66578        0.08087       -0.13968
C          6.14040        0.38171       -0.18704
F          6.86714       -0.63169        0.31444
F          6.56054        0.57337       -1.45037
F          6.45531        1.48636        0.50746
C          0.24564        0.88355        0.38501
O          1.41005        1.59400        0.53939
C         -1.00218        1.36067        0.61418
C         -2.10234        0.47111        0.39865
C         -3.41877        0.88078        0.61080
C         -4.50518        0.02466        0.40471
C         -5.84568        0.45130        0.62384
C         -6.89347       -0.40602        0.41468
C         -8.31146       -0.16465        0.57953
C         -9.02918       -1.25625        0.27510
F        -10.34691       -1.37171        0.31973
C         -6.62631       -1.75086       -0.03156
S         -8.11720       -2.67158       -0.23370
C         -5.36007       -2.20184       -0.25365
C         -4.25793       -1.32166       -0.04044
H         -2.75430       -2.75214       -0.58962
H         -0.33756       -2.33700       -0.60591
H          2.54358       -2.49551       -0.82788
H          4.96363       -1.94642       -0.79530
H          4.09959        2.06695        0.52809
H         -1.17082        2.37839        0.94901
H         -3.60664        1.89784        0.94697
H         -6.02789        1.46849        0.96004
H         -8.74712        0.77072        0.90543
H         -5.16976       -3.21713       -0.58965
