40
anti_C_O_3-CF3_2-OMe.log	Energy: -813089.5718089
C          1.18187        2.00078       -0.15198
C          0.09739        1.13581       -0.05741
C         -1.24935        1.62046       -0.11051
C         -2.28777        0.73843       -0.01378
C         -3.72851        0.83116       -0.02356
C         -4.17283       -0.43926        0.11581
O         -5.41740       -0.88617        0.16520
C         -5.61817       -2.28975        0.31883
C         -1.99870       -0.65978        0.13937
O         -3.17679       -1.36691        0.21713
C         -0.75814       -1.19076        0.19748
C          0.35002       -0.28450        0.09819
C          1.65943       -0.74215        0.14835
C          2.75601        0.13222        0.05269
C          4.08451       -0.33641        0.10384
C          5.16603        0.52561        0.00977
C          6.54709        0.09397        0.05673
C          6.87081       -1.36736        0.21612
F          6.36008       -2.10700       -0.78805
F          8.19274       -1.59956        0.23724
F          6.36708       -1.87138        1.36003
C          7.56459        0.99151       -0.04100
C          4.91545        1.94086       -0.14475
C          6.02813        2.84204       -0.24291
C          7.30556        2.38771       -0.19317
C          3.61308        2.40857       -0.19612
C          2.50825        1.54055       -0.10139
H          0.99997        3.06683       -0.26874
H         -1.42313        2.68605       -0.22726
H         -4.34461        1.71081       -0.11964
H         -6.69900       -2.42396        0.33338
H         -5.18351       -2.64658        1.25645
H         -5.18325       -2.84099       -0.51922
H         -0.59284       -2.25641        0.31433
H          1.84621       -1.80726        0.26499
H          4.23922       -1.40273        0.21974
H          8.59137        0.64718       -0.00347
H          5.82105        3.90268       -0.35868
H          8.14194        3.07490       -0.26797
H          3.43622        3.47550       -0.31282
