48
anti_C_NPh_2-OMe_diF.log	Energy: -858625.4693367
C         -2.30070       -1.44578        2.14010
C         -3.29398       -0.57078        1.70406
C         -4.61999       -0.63198        2.22404
C         -5.56341        0.24239        1.76314
C         -6.94869        0.46025        2.07433
F         -7.66768       -0.23306        2.95902
C         -7.38119        1.48644        1.31081
F         -8.58124        2.02914        1.24353
C         -5.22606        1.22289        0.75863
N         -6.36856        1.98194        0.49892
C         -6.51655        2.99801       -0.47762
C         -6.09780        2.76393       -1.78769
C         -6.22678        3.76773       -2.74094
C         -6.79431        4.99234       -2.39915
C         -7.22522        5.21410       -1.09400
C         -7.07783        4.22564       -0.12747
C         -3.96738        1.32833        0.24461
C         -2.96224        0.42440        0.70480
C         -1.66029        0.47994        0.21139
C         -0.66014       -0.39904        0.65023
C          0.66165       -0.34648        0.15258
C          1.64199       -1.21805        0.59022
C          2.98749       -1.16546        0.08476
C          3.92806       -2.04071        0.53910
O          5.22201       -2.08910        0.14084
C          5.64095       -1.15376       -0.82676
C          1.30479       -2.21075        1.58456
C          2.33931       -3.10825        2.02631
C          3.59505       -3.03023        1.52879
C          0.01818       -2.27543        2.08139
C         -0.99240       -1.39043        1.64258
H         -2.54825       -2.19399        2.89010
H         -4.86679       -1.36769        2.98343
H         -5.68201        1.79691       -2.05204
H         -5.89581        3.58455       -3.75855
H         -6.90164        5.77091       -3.14782
H         -7.66744        6.16700       -0.82028
H         -7.39184        4.40105        0.89577
H         -3.71496        2.08192       -0.49446
H         -1.41080        1.22850       -0.53761
H          0.90798        0.40373       -0.59586
H          3.22028       -0.41312       -0.66075
H          6.69736       -1.35567       -1.00679
H          5.52201       -0.12470       -0.46374
H          5.08128       -1.27188       -1.76364
H          2.09130       -3.85689        2.77400
H          4.38305       -3.70122        1.85429
H         -0.22940       -3.02498        2.83023
