54
anti_C_NPh_p-OMebenz_2-Cl.log	Energy: -1118901.0729578
C          0.74525        2.33347       -1.29147
C         -0.19908        1.36591       -0.93415
C         -1.58332        1.53975       -1.21662
C         -2.48118        0.57162       -0.84891
C         -3.91047        0.43583       -0.98642
C         -4.23444       -0.75536       -0.42831
Cl        -5.80148       -1.44233       -0.26291
C         -2.01405       -0.61318       -0.17752
N         -3.12140       -1.42140        0.07001
C         -3.08125       -2.67891        0.72997
C         -2.64561       -2.74078        2.05274
C         -2.57463       -3.97141        2.69645
C         -2.95341       -5.13295        2.02824
C         -3.39338       -5.06428        0.70898
C         -3.44751       -3.83970        0.05204
C         -0.69673       -0.83314        0.10751
C          0.24972        0.16345       -0.26606
C          1.61312        0.00654       -0.00114
C          2.55149        0.97608       -0.36102
C          3.93732        0.81813       -0.09226
C          4.86895        1.76653       -0.44168
C          6.30783        1.61248       -0.16770
C          6.83317        0.48535        0.46986
C          8.19484        0.35986        0.71900
O          8.57414       -0.78449        1.34534
C          9.94367       -0.96692        1.62197
C          7.19688        2.64140       -0.56269
C          8.56473        2.49665       -0.30295
C          9.07598        1.37665        0.32919
C          4.41434        2.96875       -1.10795
C          5.37994        3.97972       -1.48372
C          6.69113        3.82419       -1.22599
C          3.07680        3.14156       -1.37785
C          2.10555        2.17117       -1.02306
H          0.40910        3.23824       -1.79356
H         -1.91206        2.44154       -1.72586
H         -4.60039        1.13643       -1.43142
H         -2.36824       -1.82468        2.56468
H         -2.23308       -4.02036        3.72572
H         -2.90446       -6.09170        2.53516
H         -3.68513       -5.96822        0.18354
H         -3.76920       -3.77574       -0.98231
H         -0.36369       -1.73943        0.60384
H          1.95210       -0.89781        0.49986
H          4.24007       -0.09608        0.40858
H          6.20110       -0.33313        0.79386
H         10.54339       -0.98204        0.70262
H         10.02376       -1.93518        2.11763
H         10.32849       -0.18656        2.29137
H          9.24286        3.28960       -0.60833
H         10.14156        1.30279        0.51199
H          5.01378        4.87300       -1.98265
H          7.40536        4.59154       -1.51375
H          2.74785        4.04939       -1.87925
