58
anti_NPh_NPh_3-F_tetClbenz.log	Energy: -2105570.1011066
C         -3.65564       -0.96256       -0.72323
C         -2.44601       -0.29417       -0.53653
C         -1.20013       -0.96782       -0.71178
C         -0.02821       -0.28827       -0.52459
C          1.38310       -0.63848       -0.61277
C          2.05101       -1.81693       -0.92507
Cl         1.14569       -3.24482       -1.31027
C          3.44778       -1.85282       -0.92884
Cl         4.28037       -3.32053       -1.31693
C          2.12262        0.52782       -0.29768
C          3.51942        0.50591       -0.29753
Cl         4.44421        1.92196        0.08655
C          4.17189       -0.69137       -0.61524
Cl         5.90116       -0.74064       -0.62110
C         -0.06455        1.09868       -0.15297
N          1.24472        1.56394       -0.02338
C          1.51826        2.91817        0.33622
C          1.60675        3.26723        1.68056
C          1.83507        4.59390        2.02972
C          1.96168        5.56397        1.03840
C          1.85289        5.21037       -0.30435
C          1.62434        3.88522       -0.65902
C         -1.22477        1.78894        0.02775
C         -2.46053        1.09987       -0.16176
C         -3.68851        1.73586        0.00601
C         -4.90602        1.06756       -0.17888
C         -6.15011        1.72640        0.00903
C         -7.31400        1.03086       -0.18879
C         -8.70474        1.36502       -0.06448
F         -9.16239        2.57007        0.28190
C         -9.45134        0.28018       -0.36775
C         -7.29129       -0.35065       -0.59232
N         -8.60954       -0.78044       -0.70392
C         -9.05391       -2.07242       -1.06211
C         -8.50750       -2.72144       -2.17104
C         -8.95327       -3.99237       -2.51604
C         -9.95870       -4.61170       -1.77841
C        -10.51307       -3.95422       -0.68369
C        -10.05706       -2.69308       -0.31615
C         -6.11306       -1.02740       -0.75966
C         -4.89136       -0.32646       -0.55905
H         -3.63785       -2.01272       -1.00662
H         -1.20903       -2.01399       -0.99240
H          1.50737        2.49594        2.43762
H          1.91530        4.86975        3.07645
H          2.14212        6.59871        1.31307
H          1.94707        5.96675       -1.07711
H          1.53849        3.58874       -1.69953
H         -1.22322        2.83715        0.30906
H         -3.70509        2.78548        0.29089
H         -6.16975        2.76811        0.31491
H        -10.52420        0.16808       -0.41010
H         -7.75200       -2.22003       -2.76706
H         -8.52303       -4.49265       -3.37827
H        -10.30940       -5.60059       -2.05620
H        -11.29478       -4.43068       -0.09999
H        -10.46301       -2.19213        0.55753
H         -6.08942       -2.07816       -1.02942
