38
anti_S_S_diCN_tetClbenz.log	Energy: -2299423.2636231
C         -2.64981       -1.90092        0.32640
C         -1.69617       -0.88922        0.21662
C         -0.31463       -1.19822        0.03936
C          0.62167       -0.20417       -0.06925
C          2.07869       -0.27283       -0.25466
C          2.94023       -1.37183       -0.37335
Cl         2.33013       -2.99434       -0.30759
C          4.31694       -1.18569       -0.54769
Cl         5.36818       -2.55023       -0.69323
C          2.64744        1.01290       -0.31604
C          4.01203        1.21251       -0.48871
Cl         4.62324        2.82985       -0.55338
C          4.85645        0.10941       -0.60613
Cl         6.55195        0.34233       -0.82183
C          0.17653        1.16670       -0.00014
S          1.49289        2.32057       -0.15712
C         -1.13000        1.50815        0.16858
C         -2.11614        0.48436        0.28329
C         -3.46676        0.77665        0.45642
C         -4.42704       -0.23623        0.56678
C         -5.80328        0.06498        0.74244
C         -6.71601       -0.95280        0.84603
C         -8.15092       -0.86143        1.02627
C         -8.83774        0.38349        1.12499
N         -9.34990        1.42057        1.19995
C         -8.75538       -2.08293        1.08885
C        -10.14644       -2.31986        1.25987
N        -11.27823       -2.52858        1.39870
C         -6.28955       -2.32019        0.77841
S         -7.64605       -3.42781        0.93641
C         -4.97613       -2.65222        0.61056
C         -4.00742       -1.61407        0.49988
H         -2.32976       -2.93880        0.27564
H         -0.03402       -2.24093       -0.00636
H         -1.43756        2.54855        0.21730
H         -3.78571        1.81471        0.50711
H         -6.12693        1.10107        0.79370
H         -4.65368       -3.68779        0.55943
