34
anti_S_O_3-Cl_2-OMe.log	Energy: -1091328.2530998
C          1.01274        1.70845        0.13981
C         -0.17594        0.98011        0.06493
C         -1.44877        1.62838        0.10984
C         -2.59050        0.87866        0.03323
C         -4.00851        1.14912        0.04324
C         -4.60642       -0.05973       -0.06875
O         -5.89707       -0.35137       -0.10710
C         -6.26855       -1.72223       -0.23304
C         -2.47612       -0.54440       -0.09057
O         -3.73191       -1.10367       -0.15174
C         -1.30800       -1.22449       -0.13912
C         -0.10060       -0.45841       -0.06055
C          1.14891       -1.07267       -0.10289
C          2.33905       -0.34001       -0.02780
C          3.60946       -0.97563       -0.07224
C          4.75414       -0.22741        0.00353
C          6.14022       -0.65114       -0.02162
Cl         6.58863       -2.32050       -0.16440
C          7.02860        0.35464        0.07440
C          4.67323        1.20043        0.12820
S          6.27580        1.92768        0.20598
C          3.47280        1.84848        0.17441
C          2.26725        1.09283        0.09726
H          0.96051        2.79086        0.23421
H         -1.48980        2.70952        0.20419
H         -4.51110        2.09986        0.12168
H         -7.35771       -1.72314       -0.24801
H         -5.90505       -2.30567        0.61726
H         -5.88060       -2.14892       -1.16196
H         -1.27474       -2.30465       -0.23359
H          1.20332       -2.15494       -0.19730
H          3.66518       -2.05652       -0.16662
H          8.10650        0.26869        0.07619
H          3.41668        2.92925        0.26868
