34
anti_C_O_2-CN_C.log	Energy: -587541.2703246
C          0.61684        2.08673        0.60706
C         -0.18960        0.94699        0.31295
C         -1.56975        1.08793        0.04483
C         -2.32384       -0.03157       -0.23729
C         -3.71178       -0.29516       -0.55132
C         -3.80233       -1.62861       -0.72274
C         -1.69695       -1.30147       -0.25489
O         -2.60962       -2.27243       -0.55260
C         -0.36563       -1.49600       -0.00565
C          0.41616       -0.35595        0.28669
C          1.81282       -0.47928        0.56131
C          2.55879        0.62856        0.81861
C          3.99022        0.79701        1.25440
C          5.30587        0.83271        0.44952
C          7.54088       -0.19913       -0.33412
C          6.94515        0.14426       -1.43183
C          6.97822        0.62877       -2.74788
N          6.97610        1.02494       -3.83830
C          4.16567        2.30354        1.23281
C          5.51854        2.15100        0.67736
C          6.03421       -0.22669       -0.27364
C          3.00352        2.95512        1.04707
C          1.95329        1.93904        0.85733
H          0.15297        3.07014        0.60875
H         -2.01954        2.07678        0.06470
H         -4.51701        0.41982       -0.63440
H         -4.63421       -2.27223       -0.96689
H          0.07785       -2.48605       -0.02975
H          2.26208       -1.46982        0.54902
H          4.15734        0.34768        2.24121
H          8.45278       -0.31251        0.23078
H          6.30586        2.84533        0.40838
H          5.52460       -1.19042       -0.31073
H          2.86897        4.00751        0.82488
