39
anti_C_O_diCF3_C.log	Energy: -952676.9386066
C          0.88023        1.09579        1.37110
C         -0.18734        0.66979        0.58732
C         -1.53507        0.75977        1.05817
C         -2.55314        0.32998        0.25598
C         -3.99642        0.25672        0.36536
C         -4.42678       -0.27672       -0.79221
C         -2.25741       -0.20323       -1.04183
O         -3.41677       -0.56854       -1.66691
C         -1.00674       -0.31772       -1.55083
C          0.08096        0.12521       -0.73156
C          1.39564        0.04413       -1.17544
C          2.47369        0.47427       -0.38418
C          3.80314        0.38738       -0.84486
C          4.88064        0.80833       -0.07537
C          6.26712        0.73435       -0.51801
C          6.48315        0.15423       -1.90675
F          5.82890        0.88701       -2.82947
F          7.74993        0.08619       -2.30768
F          5.99341       -1.09959       -1.97401
C          7.27609        1.17319        0.30296
C          8.76048        1.14823       -0.04899
F          9.21135       -0.09477       -0.26223
F          9.04079        1.89793       -1.12286
F          9.50234        1.64691        0.95842
C          4.60164        1.34849        1.23510
C          5.69429        1.78750        2.04281
C          6.96968        1.70466        1.59966
C          3.30024        1.43865        1.69826
C          2.20715        1.01345        0.92180
H          0.68293        1.50429        2.35956
H         -1.72573        1.16864        2.04615
H         -4.60984        0.56400        1.19921
H         -5.41698       -0.51392       -1.15212
H         -0.82483       -0.72714       -2.53855
H          1.59808       -0.36350       -2.16300
H          3.95101       -0.02499       -1.83331
H          5.48357        2.19318        3.02827
H          7.78297        2.04240        2.22641
H          3.11894        1.84941        2.68871
