39
anti_C_S_benz_diF.log	Energy: -953358.0792140
C         -2.54939        0.82973        0.95508
C         -3.72168        0.12554        0.67977
C         -5.00654        0.72318        0.83110
C         -6.13192        0.00048        0.55126
C         -7.51310        0.40792        0.63618
F         -7.86502        1.63257        1.02871
C         -8.37453       -0.56049        0.28460
F         -9.69440       -0.47431        0.26552
C         -6.03109       -1.36256        0.10378
S         -7.61961       -2.07879       -0.19073
C         -4.82369       -1.97153       -0.05404
C         -3.62805       -1.24313        0.23027
C         -2.37032       -1.82650        0.08285
C         -1.19526       -1.11906        0.35954
C          0.08689       -1.70775        0.21170
C          1.24901       -1.02112        0.48119
C          2.58497       -1.61850        0.33324
C          2.78152       -2.94272       -0.09436
C          4.05041       -3.47722       -0.22416
C          3.72580       -0.83881        0.63073
C          5.00793       -1.39672        0.49354
C          5.17556       -2.70082        0.07120
C          1.14792        0.35023        0.93002
C          2.35654        1.09104        1.21748
C          3.57129        0.53026        1.07588
C         -0.08685        0.93998        1.08017
C         -1.28860        0.24278        0.80650
H         -2.61758        1.86103        1.29368
H         -5.08467        1.75223        1.16874
H         -4.74814       -3.00110       -0.39194
H         -2.30045       -2.85790       -0.25572
H          0.11817       -2.73807       -0.12786
H          1.93017       -3.57151       -0.33105
H          4.16963       -4.50391       -0.55674
H          5.87352       -0.78189        0.72687
H          6.17189       -3.11989       -0.03055
H          2.25579        2.11973        1.55289
H          4.47086        1.09925        1.29541
H         -0.14677        1.97202        1.41860
