52
anti_O_NPh_2-CN_m-OMebenz.log	Energy: -886989.9616167
C         -2.89271       -1.75717        0.21175
C         -1.84153       -0.84247        0.15902
C         -0.48104       -1.27350        0.10841
C          0.52272       -0.35157        0.05987
C          1.96948       -0.45013       -0.00926
C          2.86279       -1.52137       -0.03134
C          4.22223       -1.27440       -0.08389
C          2.47086        0.86032       -0.04499
C          3.83605        1.13765       -0.08678
C          4.70566        0.04721       -0.10752
O          6.05530        0.16316       -0.14981
C          6.61263        1.45782       -0.17044
C          0.21186        1.05753        0.06414
N          1.41139        1.76672       -0.00093
C          1.53013        3.17702       -0.02265
C          0.98581        3.93776        1.01261
C          1.09613        5.32377        0.98329
C          1.76587        5.95283       -0.06314
C          2.31652        5.19033       -1.08989
C          2.19073        3.80519       -1.07909
C         -1.06975        1.52020        0.09912
C         -2.13718        0.57129        0.15040
C         -3.46955        0.97653        0.19218
C         -4.52893        0.06101        0.24405
C         -5.88140        0.50036        0.28583
C         -6.88484       -0.43281        0.33665
C         -8.32638       -0.38336        0.38754
C         -8.73593       -1.67181        0.42263
C        -10.05382       -2.20581        0.47842
N        -11.13784       -2.61339        0.52380
C         -6.56072       -1.82300        0.34687
O         -7.70495       -2.57265        0.39985
C         -5.29127       -2.30592        0.30849
C         -4.23099       -1.35326        0.25511
H         -2.66479       -2.82072        0.21837
H         -0.26413       -2.33845        0.10406
H          2.49695       -2.54366       -0.00494
H          4.94419       -2.08291       -0.10402
H          4.19031        2.16062       -0.09322
H          7.69369        1.31911       -0.20566
H          6.34891        2.02376        0.73217
H          6.29046        2.02021       -1.05639
H          0.48502        3.43588        1.83464
H          0.66838        5.91273        1.78886
H          1.85736        7.03439       -0.07894
H          2.83358        5.67553       -1.91215
H          2.59414        3.20292       -1.88730
H         -1.29511        2.58195        0.08413
H         -3.69735        2.04022        0.18396
H         -6.09967        1.56434        0.27673
H         -8.96565        0.48704        0.39656
H         -5.08344       -3.37037        0.31738
