48
anti_S_NPh_3-CN_tetClbenz.log	Energy: -2171376.2860139
C         -2.73742       -1.84034        0.12135
C         -1.69087       -0.91682        0.09830
C         -0.33617       -1.34748       -0.02024
C          0.67009       -0.42152       -0.03993
C          2.12076       -0.48991       -0.14912
C          3.01415       -1.54813       -0.27448
Cl         2.42079       -3.17609       -0.32761
C          4.38610       -1.30045       -0.35874
Cl         5.49991       -2.61551       -0.51881
C          2.60420        0.83979       -0.10732
C          3.97437        1.10184       -0.18241
Cl         4.58861        2.72131       -0.11051
C          4.85651        0.02257       -0.31087
Cl         6.55646        0.32316       -0.40978
C          0.35105        0.97512        0.06140
N          1.53311        1.71106        0.02135
C          1.52022        3.13916        0.04919
C          1.51265        3.80084        1.27334
C          1.45980        5.19043        1.29906
C          1.40575        5.90835        0.10686
C          1.39616        5.23803       -1.11406
C          1.44627        3.84875       -1.14579
C         -0.92593        1.43925        0.17324
C         -1.99066        0.49141        0.19506
C         -3.32313        0.88973        0.30875
C         -4.37208       -0.03473        0.33202
C         -5.72761        0.38053        0.44872
C         -6.72953       -0.55212        0.46863
C         -8.16678       -0.35026        0.57983
C         -8.76214        0.94122        0.69073
N         -9.21259        2.00622        0.77936
C         -8.86934       -1.50959        0.56671
C         -6.41872       -1.94951        0.37200
S         -7.88258       -2.92965        0.42170
C         -5.13308       -2.39163        0.25860
C         -4.07125       -1.44120        0.23563
H         -2.50656       -2.90067        0.04816
H         -0.13085       -2.40835       -0.09385
H          1.55966        3.22302        2.19086
H          1.46311        5.71246        2.25066
H          1.36740        6.99305        0.12933
H          1.34944        5.79718       -2.04314
H          1.44054        3.30790       -2.08682
H         -1.13911        2.50083        0.24505
H         -3.55395        1.94979        0.38178
H         -5.96068        1.43958        0.52176
H         -9.94475       -1.60700        0.63660
H         -4.90020       -3.44997        0.18562
