46
anti_C_O_tetFbenz_m-CNbenz.log	Energy: -1029437.6966567
C         -2.93663       -1.40836        0.64794
C         -1.79766       -0.75701        0.17592
C         -0.50116       -1.06503        0.69290
C          0.58631       -0.40390        0.20352
C          2.01601       -0.43717        0.46643
C          2.84187       -1.15868        1.32368
C          4.20831       -0.91389        1.29723
C          2.57498        0.51331       -0.39831
C          3.92850        0.78118       -0.45004
C          4.74238        0.04518        0.41972
C          6.16050        0.27675        0.41461
N          7.30491        0.46061        0.41336
C          0.42292        0.58721       -0.81789
O          1.63318        1.13183       -1.17056
C         -0.77571        0.92580       -1.35009
C         -1.93620        0.24814       -0.85550
C         -3.20691        0.53704       -1.34876
C         -4.34903       -0.11830       -0.87294
C         -5.63968        0.18196       -1.38025
C         -6.77523       -0.45363       -0.92267
C         -8.13087       -0.17084       -1.42266
C         -8.42901        0.77248       -2.41920
F         -7.48140        1.51117       -3.01249
C         -9.72076        1.00576       -2.85872
F         -9.94740        1.91130       -3.80558
C         -9.22823       -0.88688       -0.87655
C        -10.52638       -0.63712       -1.33376
F        -11.55594       -1.31520       -0.81512
C        -10.78657        0.29681       -2.31458
F        -12.02466        0.52366       -2.73946
C         -6.62633       -1.45794        0.11013
C         -7.79139       -2.14572        0.61662
C         -9.02453       -1.87993        0.15424
C         -5.38053       -1.75957        0.61130
C         -4.20970       -1.11378        0.14899
H         -2.83274       -2.16404        1.42327
H         -0.40334       -1.82070        1.46724
H          2.42981       -1.89921        2.00135
H          4.87670       -1.46018        1.95313
H          4.34006        1.52042       -1.12651
H         -0.86406        1.68140       -2.12295
H         -3.31532        1.29177       -2.12400
H         -5.70244        0.93755       -2.14911
H         -7.64469       -2.89314        1.39118
H         -9.89217       -2.40088        0.54068
H         -5.29008       -2.51695        1.38658
