40
anti_S_S_2-Cl_m-OMebenz.log	Energy: -1390387.2160362
C         -2.85697       -1.67130       -0.08169
C         -1.85636       -0.70611        0.03620
C         -0.47643       -1.03401       -0.11424
C          0.48685       -0.07227        0.00531
C          1.93411       -0.20044       -0.11193
C          2.69766       -1.34290       -0.37661
C          4.07366       -1.25833       -0.44915
C          2.59786        1.01696        0.07504
C          3.98552        1.12745        0.00661
C          4.72218       -0.02583       -0.25833
O          6.07256       -0.06204       -0.35202
C          6.78559        1.14152       -0.17083
C          0.09939        1.28577        0.28639
S          1.49714        2.35790        0.39879
C         -1.20439        1.64671        0.43815
C         -2.22768        0.65671        0.31707
C         -3.57659        0.97620        0.46380
C         -4.58169        0.00989        0.34591
C         -5.95704        0.34026        0.49620
C         -6.92162       -0.62647        0.37539
C         -8.35755       -0.49274        0.49217
C         -8.99139       -1.66571        0.31126
Cl       -10.69393       -1.92264        0.37079
C         -6.53349       -1.98367        0.09450
S         -7.94005       -3.03762       -0.01463
C         -5.22697       -2.34468       -0.05701
C         -4.21005       -1.35294        0.06505
H         -2.57625       -2.70058       -0.29388
H         -0.20590       -2.06534       -0.32619
H          2.20975       -2.30177       -0.52616
H          4.68301       -2.13176       -0.65322
H          4.46428        2.08759        0.15686
H          7.83935        0.88628       -0.28605
H          6.62123        1.55848        0.83094
H          6.50934        1.88913       -0.92529
H         -1.48685        2.67399        0.65008
H         -3.85717        2.00549        0.67592
H         -6.23407        1.36960        0.70814
H         -8.86574        0.44047        0.70055
H         -4.94254       -3.37136       -0.26891
