54
anti_S_NPh_3-CF3_m-OMebenz.log	Energy: -1243250.0535753
C         -2.60572       -2.03125        0.14991
C         -1.59954       -1.06574        0.11989
C         -0.23038       -1.42168       -0.07489
C          0.72814       -0.45155       -0.09596
C          2.16848       -0.47031       -0.27894
C          3.10216       -1.48708       -0.47986
C          4.44212       -1.16816       -0.60242
C          2.61014        0.86025       -0.20921
C          3.95528        1.20837       -0.31830
C          4.86606        0.17109       -0.51808
O          6.20273        0.35871       -0.64353
C          6.70039        1.67502       -0.56261
C          0.36006        0.93180        0.08223
N          1.52024        1.70303        0.00801
C          1.57787        3.11192        0.13029
C          1.08045        3.73255        1.27673
C          1.12998        5.11778        1.38922
C          1.69338        5.88512        0.37282
C          2.19797        5.26225       -0.76571
C          2.13143        3.87903       -0.89548
C         -0.93343        1.32455        0.25889
C         -1.95349        0.32478        0.28498
C         -3.29481        0.65946        0.46726
C         -4.30504       -0.30854        0.49708
C         -5.66886        0.04551        0.68481
C         -6.63697       -0.92529        0.71074
C         -8.07265       -0.79434        0.88782
C         -8.75294        0.51994        1.08172
F         -8.53946        1.34440        0.03935
F        -10.08003        0.38357        1.22372
F         -8.29201        1.15747        2.17413
C         -8.72406       -1.97361        0.85890
C         -6.26897       -2.30364        0.54684
S         -7.68523       -3.34964        0.61757
C         -4.97184       -2.68672        0.36402
C         -3.95027       -1.69460        0.33424
H         -2.33597       -3.07780        0.02544
H          0.02915       -2.46850       -0.20945
H          2.78300       -2.52363       -0.53752
H          5.19394       -1.93307       -0.76069
H          4.26479        2.24286       -0.24020
H          7.78088        1.59615       -0.68739
H          6.48016        2.12927        0.41194
H          6.28931        2.31009       -1.35807
H          0.66305        3.12351        2.07245
H          0.73823        5.59745        2.28096
H          1.73765        6.96566        0.46720
H          2.63165        5.85567       -1.56486
H          2.49828        3.38530       -1.79011
H         -1.20327        2.36958        0.37431
H         -3.56641        1.70550        0.59036
H         -5.93174        1.09164        0.80692
H         -9.78996       -2.12050        0.96886
H         -4.70092       -3.73142        0.24075
