57
anti_S_NPh_diCF3_p-OMebenz.log	Energy: -1454682.8960495
C         -2.44888       -2.12878        0.39343
C         -1.47651       -1.13459        0.29617
C         -0.09760       -1.45764        0.11248
C          0.82633       -0.45994        0.02357
C          2.26800       -0.45430       -0.17356
C          3.20122       -1.46958       -0.31556
C          4.54684       -1.13359       -0.47451
O          5.40163       -2.18504       -0.61233
C          6.77342       -1.90815       -0.76409
C          2.67073        0.89432       -0.19278
C          4.00617        1.23572       -0.33742
C          4.94153        0.21039       -0.48105
C          0.42091        0.92170        0.11838
N          1.55210        1.71968       -0.01400
C          1.56902        3.13386        0.01003
C          1.03530        3.81964        1.10203
C          1.04363        5.21020        1.11648
C          1.60270        5.92037        0.05719
C          2.14500        5.23332       -1.02571
C          2.11976        3.84319       -1.05819
C         -0.88571        1.28123        0.28068
C         -1.87173        0.25312        0.37697
C         -3.22205        0.55497        0.54841
C         -4.19999       -0.44212        0.64571
C         -5.57125       -0.11816        0.82085
C         -6.51082       -1.11550        0.91357
C         -7.94968       -1.00910        1.09198
C         -8.59514        0.34238        1.20323
F         -8.34953        1.07294        0.10067
F         -9.91824        0.29533        1.36703
F         -8.08258        1.02325        2.24424
C         -8.56274       -2.21493        1.13861
C        -10.02912       -2.53198        1.30940
F        -10.50700       -2.07405        2.47081
F        -10.76887       -2.01923        0.32111
F        -10.21458       -3.86382        1.29808
C         -6.10013       -2.48641        0.83218
S         -7.47017       -3.57155        0.97390
C         -4.79211       -2.84197        0.66448
C         -3.80299       -1.82432        0.56647
H         -2.14553       -3.17159        0.33185
H          0.19701       -2.50126        0.03986
H          2.91675       -2.51669       -0.30288
H          7.26798       -2.87617       -0.85419
H          7.17858       -1.37670        0.10736
H          6.97023       -1.31806       -1.66917
H          4.32796        2.27169       -0.33401
H          5.98547        0.47779       -0.59527
H          0.62360        3.25727        1.93427
H          0.62377        5.73960        1.96635
H          1.61534        7.00567        0.07541
H          2.57703        5.78099       -1.85774
H          2.51658        3.29972       -1.91014
H         -1.18975        2.32175        0.33202
H         -3.52731        1.59708        0.60846
H         -5.86018        0.92571        0.87934
H         -4.49171       -3.88402        0.60404
