45
anti_O_NPh_2-F_3-OMe.log	Energy: -794990.4266990
C          0.22681        1.37582        1.20561
C          1.60804        1.31036        0.98338
C          2.52922        2.00354        1.81424
C          3.87215        1.91245        1.55793
C          5.04528        2.49180        2.17502
O          5.05800        3.30361        3.26787
C          4.65022        4.63346        2.98697
C          6.13057        2.04414        1.49753
C          4.35366        1.09828        0.47392
N          5.74228        1.18521        0.47085
C          6.63168        0.54367       -0.41809
C          6.48338       -0.81436       -0.70779
C          7.36875       -1.43526       -1.58164
C          8.41777       -0.71859       -2.15142
C          8.57275        0.63105       -1.84749
C          7.67833        1.26643       -0.99333
C          3.49989        0.43218       -0.36379
C          2.10019        0.52573       -0.12421
C          1.17669       -0.13574       -0.94238
C         -0.19904       -0.06767       -0.72275
C         -1.12185       -0.75362       -1.57298
C         -2.46129       -0.66209       -1.32107
C         -3.66785       -1.19087       -1.92896
C         -4.66480       -0.70561       -1.17110
F         -5.96093       -0.86433       -1.26481
C         -2.91161        0.12062       -0.20870
O         -4.28858        0.07686       -0.13778
C         -2.09722        0.79502        0.63555
C         -0.68863        0.71393        0.39103
H         -0.14155        1.96536        2.04246
H          2.16047        2.59791        2.64579
H          5.34340        5.11448        2.28491
H          4.66030        5.17026        3.93737
H          3.63949        4.66360        2.56136
H          7.17790        2.23130        1.68562
H          5.68910       -1.37976       -0.23164
H          7.24673       -2.49121       -1.80319
H          9.11138       -1.20947       -2.82674
H          9.38535        1.19969       -2.28941
H          7.77673        2.32666       -0.78065
H          3.86081       -0.15476       -1.20218
H          1.54574       -0.72537       -1.77894
H         -0.74267       -1.33751       -2.40665
H         -3.76642       -1.82957       -2.79213
H         -2.48478        1.37550        1.46587
