44
anti_S_NPh_3-CF3_3-F.log	Energy: -1137266.1718229
C          0.67131        1.26920        2.44657
C         -0.65853        0.93124        2.17076
C         -1.71747        1.32600        3.03198
C         -3.00289        0.97408        2.71736
C         -4.27292        1.17382        3.35678
F         -4.44499        1.84581        4.49673
C         -5.24011        0.59268        2.61360
C         -3.29303        0.22055        1.52477
N         -4.66663        0.01148        1.48167
C         -5.38623       -0.70286        0.49761
C         -5.16010       -0.45439       -0.85743
C         -5.87524       -1.16189       -1.81723
C         -6.83289       -2.09780       -1.43565
C         -7.06736       -2.33036       -0.08324
C         -6.34025       -1.64532        0.88396
C         -2.29863       -0.19830        0.68232
C         -0.95407        0.15399        0.98777
C          0.10315       -0.23900        0.16015
C          1.42813        0.09837        0.43882
C          2.49461       -0.30782       -0.41265
C          3.78540        0.03921       -0.11474
C          5.01251       -0.26267       -0.83153
C          5.04270       -1.05739       -2.09465
F          4.52760       -2.28784       -1.91461
F          4.31031       -0.47396       -3.06175
F          6.28963       -1.20602       -2.56612
C          6.11311        0.24440       -0.24294
C          4.06305        0.81686        1.06290
S          5.79043        1.12962        1.22156
C          3.07372        1.22670        1.90618
C          1.72088        0.87728        1.61704
H          0.89032        1.85465        3.33680
H         -1.49975        1.89256        3.93237
H         -6.30830        0.56444        2.76706
H         -4.44120        0.30359       -1.15087
H         -5.69381       -0.96593       -2.86959
H         -7.39458       -2.64181       -2.18834
H         -7.80925       -3.06110        0.22389
H         -6.49609       -1.84865        1.93915
H         -2.50877       -0.79529       -0.19898
H         -0.11420       -0.82586       -0.72947
H          2.26985       -0.89480       -1.29768
H          7.13103        0.14672       -0.59542
H          3.29136        1.81336        2.79407
