46
anti_C_NPh_3-CN_2-CN.log	Energy: -777928.2458686
C          0.92365        1.66326        0.11563
C         -0.25881        0.90263        0.08949
C         -1.53297        1.51784        0.15131
C         -2.66726        0.73967        0.12560
C         -4.07102        1.04234        0.15573
C         -4.73205       -0.14855        0.09123
C         -6.14087       -0.35487        0.11327
N         -7.29129       -0.49941        0.12521
C         -2.55352       -0.68948        0.04099
N         -3.83745       -1.21582        0.02219
C         -4.17483       -2.59417       -0.03334
C         -3.65115       -3.46801        0.91928
C         -3.97065       -4.81965        0.86018
C         -4.82651       -5.29507       -0.13024
C         -5.35576       -4.41555       -1.07022
C         -5.02262       -3.06579       -1.03373
C         -1.34076       -1.32559       -0.03465
C         -0.16412       -0.53504       -0.00872
C          1.11186       -1.12172       -0.07784
C          2.27027       -0.35967       -0.05177
C          3.57734       -0.94682       -0.12107
C          4.69693       -0.18104       -0.09312
C          8.09088        0.60584       -0.10539
C          8.41372       -0.75587       -0.20154
N          8.63953       -1.89146       -0.28078
C          8.49632        1.86099       -0.03086
C          4.62157        1.25420        0.00727
C          5.82456        2.08877        0.03811
C          7.08130        1.65218       -0.01614
C          3.38578        1.83942        0.07445
C          2.17837        1.07244        0.04833
H          0.84803        2.74606        0.19015
H         -1.60195        2.60045        0.21330
H         -4.53447        2.01550        0.22325
H         -3.00642       -3.08166        1.70237
H         -3.56126       -5.49987        1.60053
H         -5.08227       -6.34931       -0.16766
H         -6.02359       -4.78031       -1.84411
H         -5.41577       -2.37889       -1.77613
H         -1.26702       -2.40524       -0.11802
H          1.18875       -2.20425       -0.15382
H          3.65685       -2.02808       -0.19751
H          9.33570        2.54004       -0.00308
H          5.67648        3.16299        0.11232
H          5.66731       -0.66336       -0.14819
H          3.30308        2.92164        0.15041
