42
anti_S_S_diCN_m-OMebenz.log	Energy: -1217716.3744880
C         -2.73349       -1.79144       -0.11872
C         -1.74527       -0.83669        0.11780
C         -0.37676       -1.08046       -0.20301
C          0.57549       -0.13079        0.03721
C          2.00944       -0.18303       -0.21482
C          2.76798       -1.22183       -0.76687
C          4.13110       -1.07746       -0.92612
C          2.66461        0.99278        0.16686
C          4.03940        1.16222        0.01609
C          4.77161        0.11229       -0.53637
O          6.10850        0.14156       -0.73909
C          6.81495        1.30651       -0.37047
C          0.18928        1.12923        0.62109
S          1.57117        2.20196        0.84350
C         -1.10299        1.40790        0.94400
C         -2.11529        0.42864        0.70115
C         -3.45078        0.66702        1.01439
C         -4.44544       -0.29040        0.77782
C         -5.80464       -0.04084        1.09955
C         -6.75211       -1.00183        0.85386
C         -8.17774       -0.94825        1.10509
C         -8.81782        0.18874        1.67895
N         -9.29248        1.13653        2.14802
C         -8.82501       -2.09127        0.73564
C        -10.21906       -2.33998        0.85654
N        -11.35405       -2.55775        0.94864
C         -6.37598       -2.25746        0.27342
S         -7.76772       -3.31166        0.06023
C         -5.07932       -2.53666       -0.05044
C         -4.07619       -1.55601        0.19447
H         -2.45290       -2.74551       -0.55882
H         -0.10674       -2.03712       -0.64253
H          2.28641       -2.14624       -1.07234
H          4.73704       -1.86963       -1.35156
H          4.51300        2.08695        0.32294
H          7.85911        1.11455       -0.61826
H          6.72807        1.50414        0.70539
H          6.46425        2.18202       -0.93133
H         -1.38506        2.36018        1.38358
H         -3.73200        1.62080        1.45439
H         -6.08907        0.91136        1.53950
H         -4.79607       -3.48836       -0.49003
