46
anti_C_C_2-OMe_diCF3.log	Energy: -1025906.0604698
C          0.00118       -1.38263        0.07845
C         -1.22418       -0.71015       -0.00266
C         -2.45031       -1.41094        0.02780
C         -3.67368       -0.76248       -0.05148
C         -4.95810       -1.45297       -0.02401
C         -4.88701       -2.96742        0.08959
F         -4.24762       -3.32514        1.22079
F         -6.05966       -3.59567        0.10316
F         -4.18966       -3.48358       -0.94183
C         -6.12593       -0.73721       -0.09940
C         -7.52515       -1.34484       -0.07352
F         -7.74315       -2.16466       -1.10994
F         -7.76779       -2.01279        1.06178
F         -8.46764       -0.38584       -0.15117
C         -3.66561        0.67964       -0.16628
C         -4.91630        1.36702       -0.24477
C         -6.08828        0.69398       -0.21152
C         -2.47393        1.37868       -0.19806
C         -1.22650        0.72638       -0.11971
C         -0.00983        1.41642       -0.15051
C          1.21251        0.74591       -0.07014
C          2.45222        1.43061       -0.10036
C          3.65691        0.76189       -0.02024
C          4.91600        1.45752       -0.05113
C          6.08624        0.76499        0.03052
O          7.32690        1.30286        0.01222
C          7.42984        2.70506       -0.10201
C          3.65489       -0.68136        0.09834
C          4.92389       -1.35852        0.18090
C          6.08701       -0.67083        0.14886
C          2.46029       -1.36650        0.12936
C          1.21492       -0.69534        0.04798
H          0.00582       -2.46662        0.16700
H         -2.39340       -2.48705        0.11713
H         -4.91027        2.44989       -0.33117
H         -7.02314        1.23333       -0.27026
H         -2.49863        2.46235       -0.28518
H         -0.01727        2.50035       -0.23910
H          2.44560        2.51459       -0.18945
H          4.89640        2.53790       -0.14051
H          8.49626        2.93176       -0.09814
H          6.94515        3.20909        0.74379
H          6.98310        3.06099       -1.03908
H          4.92807       -2.44138        0.27013
H          7.04894       -1.16867        0.21021
H          2.46529       -2.45061        0.21843
