37
anti_C_O_3-OMe_diCl.log	Energy: -1178423.2326737
C         -2.96604        1.14685       -0.06960
C         -4.13386        0.54226        0.38681
C         -5.37666        1.24985        0.40092
C         -6.49170        0.61215        0.85786
C         -7.88402        0.96702        1.02650
Cl        -8.60052        2.47845        0.64954
C         -8.49490       -0.12346        1.53567
Cl       -10.11840       -0.37976        1.96644
C         -6.41325       -0.74052        1.31365
O         -7.65252       -1.17406        1.72549
C         -5.27204       -1.46813        1.32784
C         -4.07987       -0.82974        0.85445
C         -2.86300       -1.50258        0.83366
C         -1.68589       -0.89287        0.37356
C         -0.45064       -1.57670        0.35289
C          0.70077       -0.96502       -0.10232
C          1.97225       -1.65939       -0.12679
O          1.91517       -2.93230        0.32982
C          3.10789       -3.68355        0.33782
C          3.09797       -1.03696       -0.58039
C          0.65658        0.40013       -0.56974
C          1.86818        1.01418       -1.03866
C          3.03186        0.31771       -1.03972
C         -0.55022        1.07603       -0.55234
C         -1.73792        0.46898       -0.09094
H         -3.00601        2.17563       -0.42034
H         -5.41837        2.27692        0.05113
H         -5.25060       -2.49325        1.68116
H         -2.81952       -2.53137        1.18363
H         -0.40757       -2.60295        0.70204
H          3.86491       -3.22122        0.98380
H          3.51490       -3.79436       -0.67517
H          2.84407       -4.66509        0.73268
H          4.05319       -1.54773       -0.60227
H          1.83022        2.04129       -1.38944
H          3.94589        0.78447       -1.39469
H         -0.58877        2.10476       -0.90347
