30
anti_O_O_C_3-F.log	Energy: -590664.2772498
C          1.19856       -1.19068        0.04251
C          2.37635       -0.43788        0.00811
C          3.65592       -1.06531        0.03387
C          4.77418       -0.27976       -0.00179
C          6.19812       -0.50456        0.00623
F          6.78307       -1.69850        0.05767
C          6.81008        0.69166       -0.04674
C          4.66144        1.14210       -0.06378
O          5.90171        1.71907       -0.09054
C          3.47113        1.79559       -0.09082
C          2.28269        1.00359       -0.05468
C          1.01767        1.59443       -0.07876
C         -0.15946        0.84200       -0.04431
C         -1.44052        1.46984       -0.06996
C         -2.56671        0.69391       -0.03462
C         -3.99477        0.94047       -0.04364
C         -4.57803       -0.27093        0.01018
C         -2.44195       -0.72953        0.02730
O         -3.68293       -1.30365        0.05397
C         -1.25555       -1.38860        0.05445
C         -0.06505       -0.59919        0.01842
H          1.27103       -2.27494        0.08967
H          3.72731       -2.14759        0.08102
H          7.85115        0.97193       -0.06031
H          3.41578        2.87792       -0.13808
H          0.94544        2.67874       -0.12606
H         -1.50121        2.55342       -0.11721
H         -4.49810        1.89502       -0.08475
H         -5.61504       -0.57205        0.02473
H         -1.20256       -2.47103        0.10156
