47
anti_S_NPh_diF_tetFbenz.log	Energy: -1333457.5816589
C         -2.85552       -1.77815        0.10976
C         -1.80134       -0.86245        0.09575
C         -0.44604       -1.29697        0.01179
C          0.55500       -0.36937        0.00306
C          1.99912       -0.46706       -0.08679
C          2.86419       -1.54668       -0.17387
F          2.39136       -2.79523       -0.20164
C          4.23237       -1.33246       -0.23102
F          5.08180       -2.35615       -0.31903
C          2.50575        0.84813       -0.05608
C          3.87906        1.06788       -0.09656
F          4.40977        2.29345       -0.04648
C          4.72782       -0.02820       -0.19195
F          6.04284        0.16650       -0.24030
C          0.25428        1.03452        0.08329
N          1.45427        1.74948        0.05213
C          1.54097        3.16885        0.03118
C          1.05445        3.89887        1.11374
C          1.10690        5.28863        1.08504
C          1.65814        5.94501       -0.01193
C          2.14942        5.20915       -1.08747
C          2.08190        3.82095       -1.07456
C         -1.02671        1.49803        0.15186
C         -2.09352        0.54968        0.16201
C         -3.42729        0.95649        0.23535
C         -4.48268        0.04038        0.24864
C         -5.83975        0.46417        0.32400
C         -6.84428       -0.46388        0.33555
C         -8.26928       -0.25294        0.40638
F         -8.80035        0.96833        0.47338
C         -8.97581       -1.39530        0.39722
F        -10.29259       -1.50899        0.45167
C         -6.54189       -1.86716        0.27208
S         -8.00369       -2.85962        0.30215
C         -5.25700       -2.31376        0.19866
C         -4.18790       -1.36869        0.18477
H         -2.63013       -2.84110        0.05998
H         -0.22447       -2.35738       -0.04949
H          0.64431        3.37297        1.97035
H          0.72745        5.85779        1.92793
H          1.70604        7.02933       -0.02870
H          2.57872        5.71732       -1.94518
H          2.44806        3.23831       -1.91374
H         -1.24758        2.55962        0.19540
H         -3.65284        2.01930        0.28368
H         -6.07147        1.52393        0.37194
H         -5.02744       -3.37440        0.15042
