43
anti_S_S_benz_m-CNbenz.log	Energy: -1184404.7650995
C         -3.64239        0.18460       -1.19208
C         -4.66350       -0.25283       -0.34457
C         -6.03673       -0.04527       -0.65994
C         -7.01866       -0.48259        0.18533
C         -8.46541       -0.36724        0.04137
C         -9.19090        0.21938       -0.99721
C        -10.57501        0.23059       -0.95442
C         -9.15364       -0.94229        1.12384
C        -10.54062       -0.94009        1.18316
C        -11.24715       -0.34814        0.13365
C        -12.68318       -0.33251        0.17004
N        -13.84202       -0.31894        0.19730
C         -6.66119       -1.15770        1.40269
S         -8.08045       -1.63369        2.33807
C         -5.36124       -1.37838        1.74552
C         -4.31997       -0.93038        0.87808
C         -2.97304       -1.13218        1.18402
C         -1.95219       -0.69500        0.33688
C         -0.57784       -0.90259        0.65199
C          0.40462       -0.46609       -0.19188
C          1.85304       -0.58130       -0.04902
C          2.58024       -1.16721        0.98846
C          3.96725       -1.17473        0.93779
C          2.54113       -0.00781       -1.12951
C          3.93154       -0.01129       -1.18769
C          4.63781       -0.59945       -0.14513
C          0.04574        0.20954       -1.41023
S          1.46376        0.68443       -2.34466
C         -1.25431        0.43026       -1.75298
C         -2.29603       -0.01740       -0.88583
H         -3.90449        0.69642       -2.11533
H         -6.28853        0.46716       -1.58495
H         -8.67336        0.66752       -1.83968
H        -11.14781        0.68358       -1.75588
H        -11.07318       -1.38345        2.01751
H         -5.09779       -1.88940        2.66700
H         -2.71078       -1.64392        2.10722
H         -0.32606       -1.41507        1.57692
H          2.06197       -1.61515        1.83150
H          4.53414       -1.62990        1.74362
H          4.45460        0.43487       -2.02757
H          5.72296       -0.61048       -0.17537
H         -1.51744        0.94121       -2.67467
