33
anti_C_S_3-Cl_diCl.log	Energy: -1597645.9189551
C         -2.67199        0.81523        1.17975
C         -3.88237        0.23464        0.81628
C         -5.12880        0.76856        1.26116
C         -6.30081        0.17619        0.88736
C         -7.66116        0.55119        1.22249
Cl        -8.02133        1.90851        2.22168
C         -8.58724       -0.26355        0.67595
Cl       -10.28764       -0.14391        0.84195
C         -6.28456       -0.99009        0.04236
S         -7.91510       -1.56506       -0.29743
C         -5.12092       -1.53417       -0.40601
C         -3.87662       -0.93680       -0.03188
C         -2.66256       -1.45675       -0.46503
C         -1.43836       -0.87344       -0.10021
C         -0.20529       -1.39952       -0.53882
C          0.99820       -0.82149       -0.17740
C          2.28462       -1.31977       -0.59893
Cl         2.35396       -2.73504       -1.62590
C          3.44628       -0.72569       -0.22446
C          0.99635        0.35128        0.67127
C          2.24582        0.95060        1.04564
C          3.42320        0.43219        0.61442
C         -0.21058        0.87184        1.10502
C         -1.44393        0.29309        0.74425
H         -2.67549        1.69613        1.81740
H         -5.13563        1.64823        1.89813
H         -5.11449       -2.41376       -1.04306
H         -2.65685       -2.33751       -1.10278
H         -0.21180       -2.27873       -1.17460
H          4.39430       -1.12962       -0.56192
H          2.22570        1.83003        1.68295
H          4.36564        0.88838        0.89964
H         -0.20955        1.75293        1.74252
