30
anti_S_O_2-F_diCl.log	Energy: -1370118.5309331
C          1.01038       -1.30684        0.00356
C          2.20253       -0.57649        0.00278
C          3.46950       -1.23142        0.00395
C          4.60320       -0.46983        0.00311
C          6.02402       -0.73903        0.00380
Cl         6.76619       -2.28444        0.00618
C          6.63771        0.46348        0.00221
Cl         8.28882        0.86225        0.00199
C          4.51176        0.95375        0.00110
O          5.76847        1.50964        0.00056
C          3.34017        1.63647       -0.00008
C          2.13536        0.86760        0.00076
C          0.88345        1.48636       -0.00033
C         -0.30576        0.75374        0.00047
C         -1.57880        1.39297       -0.00064
C         -2.73056        0.65264        0.00016
C         -4.10476        1.10922       -0.00071
C         -4.96037        0.07622        0.00053
F         -6.28192        0.14666        0.00018
C         -2.64349       -0.78751        0.00214
S         -4.24366       -1.53019        0.00284
C         -1.44878       -1.44120        0.00326
C         -0.23823       -0.68497        0.00246
H          1.06006       -2.39335        0.00508
H          3.52013       -2.31607        0.00549
H          3.30964        2.72056       -0.00160
H          0.83282        2.57275       -0.00184
H         -1.62454        2.47873       -0.00213
H         -4.41377        2.14625       -0.00219
H         -1.39518       -2.52610        0.00475
