53
anti_O_NPh_2-CF3_m-CF3benz.log	Energy: -1180170.6235091
C         -2.79760       -1.81518        0.26894
C         -1.76310       -0.88182        0.19305
C         -0.39799       -1.29021        0.12052
C          0.58725       -0.34962        0.04943
C          2.03557       -0.42996       -0.04553
C          2.93054       -1.49401       -0.08376
C          4.29103       -1.23050       -0.16900
C          2.51418        0.89335       -0.09742
C          3.87390        1.17294       -0.17126
C          4.74840        0.09162       -0.20941
C          6.23154        0.34621       -0.23322
F          6.88084       -0.56121       -0.98291
F          6.52887        1.56071       -0.72638
F          6.76302        0.28293        1.00134
C          0.25659        1.05236        0.05129
N          1.44255        1.78097       -0.03941
C          1.54051        3.19441       -0.06202
C          1.00372        3.94476        0.98432
C          1.09523        5.33205        0.95547
C          1.73872        5.97111       -0.10134
C          2.28195        5.21811       -1.13880
C          2.17450        3.83143       -1.12871
C         -1.03317        1.49304        0.10772
C         -2.08163        0.52624        0.18252
C         -3.42166        0.90828        0.24544
C         -4.46235       -0.02459        0.32022
C         -5.82388        0.39175        0.38302
C         -6.80890       -0.55631        0.45608
C         -8.25472       -0.53517        0.53175
C         -8.63090       -1.82545        0.58045
C         -9.99149       -2.43560        0.66698
F        -10.92194       -1.47246        0.68800
F        -10.23906       -3.23422       -0.37945
F        -10.12881       -3.17417        1.77607
C         -6.45898       -1.94091        0.46837
O         -7.59185       -2.70739        0.54547
C         -5.18403       -2.40385        0.41064
C         -4.14019       -1.43327        0.33358
H         -2.55111       -2.87458        0.27696
H         -0.16186       -2.35111        0.11794
H          2.57174       -2.51812       -0.04836
H          5.00379       -2.04641       -0.20832
H          4.24339        2.19117       -0.19901
H          0.52470        3.43503        1.81446
H          0.67458        5.91406        1.76967
H          1.81703        7.05366       -0.11602
H          2.78097        5.71096       -1.96737
H          2.57365        3.23705       -1.94484
H         -1.27674        2.55059        0.09173
H         -3.66790        1.96774        0.23570
H         -6.05950        1.45197        0.37181
H         -8.90811        0.32386        0.54673
H         -4.95846       -3.46467        0.42172
