51
anti_C_NPh_2-F_p-CNbenz.log	Energy: -878790.9203470
C         -2.92717       -1.75278       -0.01179
C         -1.87575       -0.84460       -0.01282
C         -0.51582       -1.28157       -0.08855
C          0.48995       -0.36428       -0.08451
C          1.93930       -0.47003       -0.15821
C          2.80498       -1.54788       -0.24234
C          4.18216       -1.30258       -0.28212
C          5.09955       -2.40154       -0.37181
N          5.84113       -3.29035       -0.44470
C          2.44839        0.84574       -0.11887
C          3.81883        1.09910       -0.14696
C          4.67624        0.01272       -0.23066
C          0.19037        1.04399       -0.00156
N          1.39839        1.74719       -0.02586
C          1.52594        3.15850        0.03566
C          1.01137        3.85382        1.12960
C          1.13007        5.23839        1.18270
C          1.77699        5.92671        0.15939
C          2.29682        5.22740       -0.92660
C          2.16323        3.84467       -0.99758
C         -1.08503        1.51540        0.06144
C         -2.16328        0.57369        0.06002
C         -3.48824        0.98803        0.12683
C         -4.55588        0.07385        0.12771
C         -5.90124        0.49083        0.19602
C         -6.94603       -0.41827        0.19719
C         -8.31791       -0.00095        0.26678
C         -9.29769       -0.93441        0.26465
F        -10.58555       -0.56256        0.32929
C         -6.65400       -1.83177        0.12649
C         -7.74862       -2.76258        0.12871
C         -9.03523       -2.33496        0.19562
C         -5.33724       -2.25303        0.05876
C         -4.26671       -1.33618        0.05704
H         -2.70896       -2.81716       -0.06639
H         -0.30598       -2.34605       -0.15265
H          2.43215       -2.56650       -0.27429
H          4.20558        2.11096       -0.09989
H          5.74871        0.17402       -0.25488
H          0.52687        3.30422        1.93061
H          0.72662        5.77898        2.03327
H          1.87513        7.00664        0.20797
H          2.79681        5.75992       -1.72962
H          2.54298        3.29168       -1.85127
H         -1.30037        2.57816        0.10794
H         -3.70854        2.05182        0.17999
H         -6.11915        1.55498        0.24896
H         -8.56748        1.05345        0.32059
H         -7.52621       -3.82469        0.07545
H         -9.87310       -3.02333        0.19836
H         -5.11840       -3.31734        0.00541
