41
anti_C_O_3-CN_m-CNbenz.log	Energy: -741913.8661929
C         -2.85876       -1.68540       -0.31152
C         -1.77596       -0.84963       -0.06900
C         -0.44128       -1.25315       -0.39607
C          0.59225       -0.40404       -0.14254
C          2.03397       -0.45300       -0.32744
C          2.92812       -1.38951       -0.83773
C          4.28153       -1.07936       -0.85623
C          2.51239        0.77299        0.15320
C          3.85041        1.11326        0.14958
C          4.73403        0.15798       -0.36775
C          6.14043        0.45134       -0.39992
N          7.27550        0.68436       -0.42769
C          0.33986        0.88045        0.44653
O          1.51040        1.57737        0.61796
C         -0.89375        1.32428        0.77990
C         -2.00508        0.45326        0.52547
C         -3.30377        0.83242        0.83763
C         -4.40193       -0.01042        0.59361
C         -5.72035        0.37565        0.91070
C         -6.79342       -0.46193        0.66591
C         -8.15841       -0.09665        0.97922
C         -8.42069        1.18490        1.56835
N         -8.61487        2.22451        2.04424
C         -9.19622       -0.94899        0.72398
C         -6.56882       -1.75824        0.07467
C         -7.69304       -2.61465       -0.17269
C         -8.95855       -2.22734        0.13896
C         -5.27693       -2.14572       -0.23994
C         -4.17383       -1.30398        0.00325
H         -2.68619       -2.66233       -0.75731
H         -0.27627       -2.23030       -0.84117
H          2.57873       -2.34500       -1.21499
H          5.00206       -1.78855       -1.24764
H          4.19945        2.06710        0.52605
H         -1.04873        2.30139        1.22385
H         -3.48024        1.80810        1.28348
H         -5.88926        1.35254        1.35624
H        -10.20971       -0.64928        0.96912
H         -7.50912       -3.58839       -0.61859
H         -9.80011       -2.88428       -0.05319
H         -5.10689       -3.12307       -0.68569
