52
anti_O_NPh_diCN_m-CF3benz.log	Energy: -1084447.0828069
C         -2.73059       -1.91497        0.32140
C         -1.70964       -0.96764        0.24721
C         -0.34605       -1.35772        0.08817
C          0.62634       -0.40410        0.02126
C          2.06894       -0.46278       -0.14702
C          2.97128       -1.51338       -0.27953
C          4.32358       -1.22903       -0.40978
C          2.53201        0.86653       -0.14956
C          3.88426        1.16663       -0.26762
C          4.76594        0.09913       -0.39980
C          6.23285        0.37489       -0.59677
F          6.99857       -0.52764        0.03916
F          6.56993        0.32379       -1.89873
F          6.58505        1.59054       -0.14685
C          0.28465        0.99339        0.11479
N          1.45670        1.73757        0.00958
C          1.54011        3.15266        0.05012
C          1.06212        3.84418        1.16299
C          1.13800        5.23241        1.19586
C          1.70810        5.92898        0.13330
C          2.19340        5.23377       -0.97113
C          2.10069        3.84690       -1.02165
C         -1.00441        1.41714        0.25587
C         -2.03931        0.43649        0.32795
C         -3.37685        0.80159        0.47539
C         -4.40477       -0.14577        0.54936
C         -5.76235        0.25465        0.70040
C         -6.72698       -0.71315        0.76836
C         -8.16902       -0.71016        0.91579
C         -9.01416        0.42369        1.03843
N         -9.67218        1.37279        1.13633
C         -8.54743       -2.01897        0.91306
C         -9.84442       -2.59010        1.02759
N        -10.90865       -3.03769        1.12224
C         -6.37430       -2.08983        0.68879
O         -7.50176       -2.87115        0.77919
C         -5.10085       -2.53696        0.54452
C         -4.07186       -1.55097        0.47069
H         -2.47544       -2.97034        0.26028
H         -0.10188       -2.41427        0.01736
H          2.62526       -2.54244       -0.27584
H          5.04337       -2.03339       -0.51087
H          4.24250        2.18908       -0.24911
H          0.64085        3.28910        1.99543
H          0.76305        5.76967        2.06144
H          1.77446        7.01188        0.16623
H          2.63501        5.77222       -1.80382
H          2.45456        3.29698       -1.88834
H         -1.25660        2.47132        0.30935
H         -3.63229        1.85687        0.53489
H         -6.01591        1.30883        0.75938
H         -4.86701       -3.59423        0.48698
