34
anti_S_O_3-CN_3-CF3.log	Energy: -1000396.3764411
C         -0.18373        1.31561        0.50307
C         -1.20066        0.35771        0.52262
C         -2.57442        0.74062        0.48386
C         -3.53087       -0.23468        0.50528
C         -4.97977       -0.26255        0.48139
C         -5.89067        0.90693        0.41859
F         -5.70645        1.73134        1.46477
F         -5.67711        1.63868       -0.68912
F         -7.17843        0.52769        0.41718
C         -5.33576       -1.56101        0.52612
C         -3.15097       -1.60899        0.56567
O         -4.27148       -2.40119        0.57742
C         -1.86531       -2.03977        0.60472
C         -0.84220       -1.04221        0.58338
C          0.50814       -1.39312        0.62036
C          1.52314       -0.43281        0.60059
C          2.89669       -0.80173        0.63857
C          3.86464        0.16541        0.61780
C          5.31204        0.01393        0.64851
C          5.95750       -1.25667        0.70871
N          6.44914       -2.30587        0.75764
C          5.97118        1.19784        0.61405
C          3.49931        1.55215        0.55792
S          4.92798        2.58344        0.54282
C          2.19513        1.94988        0.51990
C          1.16654        0.96243        0.54029
H         -0.45400        2.36799        0.45746
H         -2.84086        1.79181        0.43835
H         -6.30594       -2.03461        0.52796
H         -1.61394       -3.09371        0.65031
H          0.77973       -2.44498        0.66598
H          3.16983       -1.85272        0.68397
H          7.04463        1.33344        0.62725
H          1.92211        3.00006        0.47451
