40
anti_O_O_3-Cl_p-OMebenz.log	Energy: -985035.7549994
C         -2.93975       -1.77421        0.18752
C         -1.86279       -0.88943        0.13337
C         -0.51522       -1.36327        0.07479
C          0.50808       -0.46434        0.02299
C          1.95932       -0.55714       -0.04233
C          2.86724       -1.60459       -0.07717
C          4.23091       -1.30488       -0.14079
O          5.06257       -2.38135       -0.17171
C          6.45010       -2.14836       -0.23430
C          2.41474        0.76640       -0.07100
C          3.75501        1.08342       -0.13384
C          4.66764        0.02691       -0.16883
C          0.22842        0.94213        0.02738
O          1.38346        1.67497       -0.02959
C         -1.02567        1.45387        0.08159
C         -2.11977        0.53187        0.13691
C         -3.43964        0.97443        0.19470
C         -4.52309        0.08905        0.24923
C         -5.86406        0.56692        0.30771
C         -6.88535       -0.34034        0.35931
C         -8.32823       -0.27156        0.42450
Cl        -9.27286        1.16779        0.45970
C         -8.78533       -1.53827        0.45227
C         -6.60728       -1.73931        0.35443
O         -7.77480       -2.45425        0.41146
C         -5.35213       -2.25554        0.30017
C         -4.26500       -1.33206        0.24545
H         -2.74221       -2.84384        0.18459
H         -0.32727       -2.43343        0.07254
H          2.55362       -2.64283       -0.05653
H          6.91979       -3.13260       -0.24841
H          6.80685       -1.59145        0.64220
H          6.72832       -1.60340       -1.14603
H          4.08943        2.11441       -0.15533
H          5.72481        0.25891       -0.21828
H         -1.20461        2.52368        0.08349
H         -3.63726        2.04388        0.19760
H         -6.05939        1.63519        0.31061
H         -9.78617       -1.93907        0.49999
H         -5.17393       -3.32555        0.29800
