58
anti_S_NPh_diOMe_m-CF3benz.log	Energy: -1315084.4019277
C         -2.21377       -2.15522        0.13513
C         -1.25615       -1.13903        0.08131
C          0.09884       -1.41183       -0.26756
C          1.00681       -0.39350       -0.30875
C          2.42273       -0.33263       -0.63200
C          3.36107       -1.29387       -0.99250
C          4.67441       -0.90544       -1.22228
C          2.81094        1.01585       -0.50856
C          4.12421        1.41764       -0.72275
C          5.04347        0.43710       -1.08298
C          6.45998        0.83915       -1.39204
F          7.34129       -0.10468       -1.01918
F          6.63887        1.03818       -2.71179
F          6.80882        1.98078       -0.77448
C          0.60185        0.95204        0.00213
N          1.71457        1.78447       -0.12667
C          1.72522        3.18383        0.09269
C          1.31459        3.69752        1.32301
C          1.31821        5.07225        1.53230
C          1.75029        5.93419        0.52750
C          2.16898        5.41719       -0.69555
C          2.14658        4.04486       -0.92071
C         -0.68534        1.26541        0.33006
C         -1.65159        0.21629        0.38010
C         -2.98457        0.46811        0.71363
C         -3.94224       -0.54787        0.76850
C         -5.29952       -0.28322        1.11100
C         -6.20979       -1.30409        1.15888
C         -7.61685       -1.23646        1.49809
O         -8.21553       -0.05813        1.86075
C         -8.04597        0.24829        3.23807
C         -8.23525       -2.44258        1.42575
O         -9.50015       -2.81633        1.64724
C        -10.51125       -1.81638        1.56883
C         -5.80295       -2.64576        0.84872
S         -7.16220       -3.76308        0.94292
C         -4.51668       -2.94490        0.51634
C         -3.54407       -1.90018        0.46960
H         -1.91193       -3.17553       -0.09219
H          0.39038       -2.43234       -0.50237
H          3.07348       -2.33650       -1.08756
H          5.42046       -1.64102       -1.50076
H          4.42743        2.45139       -0.60557
H          1.00131        3.01528        2.10709
H          0.99540        5.46948        2.48974
H          1.76086        7.00626        0.69740
H          2.50250        6.08425       -1.48443
H          2.44748        3.63402       -1.87955
H         -0.98733        2.28536        0.54601
H         -3.28772        1.48859        0.93734
H         -5.61143        0.73576        1.32363
H         -8.56024       -0.48756        3.87012
H         -8.48512        1.23561        3.39390
H         -6.98442        0.27061        3.51206
H        -11.45549       -2.36130        1.54850
H        -10.39681       -1.22196        0.65798
H        -10.48372       -1.15368        2.43788
H         -4.21355       -3.96129        0.28054
