52
anti_S_NPh_2-CN_p-OMebenz.log	Energy: -1089664.4537734
C         -2.81053       -1.83707        0.22807
C         -1.77854       -0.90088        0.17153
C         -0.41097       -1.30530        0.10637
C          0.57263       -0.36349        0.05478
C          2.02265       -0.44498       -0.03016
C          2.90272       -1.51548       -0.06496
C          4.27377       -1.26133       -0.13039
O          5.07369       -2.36307       -0.16582
C          6.46683       -2.16863       -0.21968
C          2.50339        0.87746       -0.06383
C          3.86368        1.13810       -0.11592
C          4.74562        0.05742       -0.15178
C          0.24137        1.04056        0.07072
N          1.42377        1.76951       -0.00055
C          1.52100        3.18041       -0.02068
C          0.94686        3.93421        1.00391
C          1.03587        5.32171        0.97484
C          1.71469        5.96059       -0.05959
C          2.29637        5.20542       -1.07456
C          2.19207        3.81865       -1.06470
C         -1.05136        1.47659        0.11871
C         -2.09904        0.50799        0.17316
C         -3.43980        0.88777        0.22813
C         -4.47703       -0.05085        0.28388
C         -5.83934        0.34622        0.34000
C         -6.83572       -0.59739        0.39523
C         -8.26163       -0.39781        0.45666
C         -8.95353       -1.56166        0.50099
C        -10.36920       -1.68562        0.56581
N        -11.52327       -1.78981        0.61870
C         -6.49800       -1.99505        0.39604
S         -7.93724       -3.00246        0.47202
C         -5.20147       -2.41930        0.34267
C         -4.15427       -1.45552        0.28494
H         -2.56205       -2.89610        0.22686
H         -0.17190       -2.36544        0.09288
H          2.55724       -2.54383       -0.03891
H          6.90963       -3.16528       -0.23856
H          6.83497       -1.62778        0.66235
H          6.76552       -1.62500       -1.12596
H          4.24462        2.15375       -0.12262
H          5.80908        0.26162       -0.19357
H          0.44105        3.42624        1.81911
H          0.58488        5.90429        1.77239
H          1.78999        7.04340       -0.07476
H          2.82194        5.69750       -1.88727
H          2.62001        3.22325       -1.86530
H         -1.29794        2.53349        0.11085
H         -3.68894        1.94657        0.22761
H         -6.08505        1.40496        0.33876
H         -8.73717        0.57564        0.46669
H         -4.94936       -3.47582        0.34309
