47
anti_S_NPh_3-F_tetFbenz.log	Energy: -1271212.8196647
C         -2.86205       -1.75906        0.06880
C         -1.80755       -0.84510        0.06317
C         -0.45162       -1.28118       -0.01386
C          0.55055       -0.35527       -0.01448
C          1.99518       -0.45527       -0.09624
C          2.85870       -1.53624       -0.18055
F          2.38390       -2.78392       -0.21383
C          4.22771       -1.32463       -0.22917
F          5.07564       -2.34993       -0.31446
C          2.50412        0.85895       -0.05968
C          3.87808        1.07595       -0.09135
F          4.41109        2.30038       -0.03510
C          4.72538       -0.02155       -0.18425
F          6.04112        0.17088       -0.22432
C          0.25185        1.04942        0.06725
N          1.45399        1.76217        0.04463
C          1.54350        3.18118        0.02581
C          1.04930        3.91112        1.10499
C          1.10442        5.30080        1.07819
C          1.66595        5.95741       -0.01341
C          2.16482        5.22174       -1.08557
C          2.09469        3.83365       -1.07469
C         -1.02818        1.51487        0.12918
C         -2.09743        0.56807        0.13093
C         -3.42982        0.97642        0.19727
C         -4.48784        0.06127        0.20223
C         -5.84290        0.48722        0.27046
C         -6.84807       -0.44223        0.27371
C         -8.27662       -0.24000        0.33626
F         -8.78236        0.99435        0.40254
C         -9.01226       -1.36319        0.32191
C         -6.55187       -1.84383        0.20899
S         -8.02580       -2.81099        0.22920
C         -5.26487       -2.29260        0.14211
C         -4.19618       -1.34918        0.13686
H         -2.63755       -2.82214        0.01789
H         -0.23136       -2.34178       -0.07640
H          0.63106        3.38508        1.95758
H          0.71889        5.86972        1.91850
H          1.71588        7.04167       -0.02865
H          2.60209        5.73000       -1.93920
H          2.46653        3.25132       -1.91157
H         -1.24771        2.57672        0.17368
H         -3.65450        2.03942        0.24674
H         -6.07382        1.54725        0.31953
H        -10.08991       -1.43314        0.36067
H         -5.03612       -3.35341        0.09273
