41
anti_C_O_diOMe_3-F.log	Energy: -735730.2472730
C         -2.73217        1.02690        0.89469
C         -3.95291        0.42440        0.60245
C         -5.18410        1.13326        0.75597
C         -6.35193        0.49492        0.45471
C         -7.75280        0.83701        0.47100
F         -8.24628        2.01678        0.83790
C         -8.44946       -0.23498        0.05558
C         -6.34474       -0.85935       -0.00645
O         -7.62226       -1.28847       -0.24419
C         -5.21142       -1.58513       -0.17266
C         -3.96572       -0.94894        0.13350
C         -2.75761       -1.62384       -0.01005
C         -1.52663       -1.01745        0.28477
C         -0.30173       -1.70268        0.13752
C          0.90360       -1.09160        0.43107
C          2.15573       -1.79090        0.28833
O          2.10739       -3.08822       -0.15159
C          2.44990       -4.04527        0.84429
C          3.33683       -1.16433        0.57248
O          4.55265       -1.78382        0.46515
C          4.90597       -2.20237       -0.84772
C          0.92109        0.27411        0.90107
C          2.18670        0.87797        1.21114
C          3.34227        0.18634        1.04944
C         -0.27487        0.95351        1.04623
C         -1.51424        0.34667        0.75012
H         -2.72198        2.05642        1.24586
H         -5.17537        2.16065        1.10668
H         -9.50609       -0.40352       -0.07773
H         -5.23721       -2.61089       -0.52446
H         -2.76434       -2.65278       -0.36228
H         -0.30096       -2.72703       -0.22112
H          3.48725       -3.91964        1.17216
H          2.32355       -5.02633        0.38279
H          1.77987       -3.95756        1.70802
H          5.92267       -2.59284       -0.77720
H          4.88908       -1.35173       -1.53979
H          4.23150       -2.98068       -1.21681
H          2.20121        1.90246        1.57207
H          4.30799        0.62769        1.27377
H         -0.26437        1.98283        1.39805
