32
anti_S_S_C_diCN.log	Energy: -1049485.1612847
C          1.13947       -1.21020        0.00105
C          2.30669       -0.44066        0.00119
C          3.59222       -1.04455        0.00201
C          4.71518       -0.25892        0.00212
C          6.10420       -0.67071        0.00289
C          6.50416       -2.03904        0.00366
N          6.77782       -3.16547        0.00436
C          6.97024        0.38328        0.00281
C          8.38922        0.29957        0.00345
N          9.54750        0.24862        0.00397
C          4.59972        1.17127        0.00141
S          6.17976        1.94515        0.00169
C          3.38445        1.79117        0.00061
C          2.19961        0.99844        0.00048
C          0.93179        1.58285       -0.00034
C         -0.23492        0.81409       -0.00048
C         -1.52456        1.41525       -0.00131
C         -2.65317        0.63759       -0.00143
C         -4.04279        1.04442       -0.00221
C         -4.89332        0.00073       -0.00208
C         -2.52831       -0.79787       -0.00071
S         -4.10961       -1.56529       -0.00103
C         -1.31272       -1.41665        0.00010
C         -0.12689       -0.62484        0.00024
H          1.22292       -2.29437        0.00159
H          3.67922       -2.12785        0.00255
H          3.29907        2.87370        0.00006
H          0.84896        2.66717       -0.00088
H         -1.60291        2.49920       -0.00185
H         -4.36010        2.08044       -0.00283
H         -5.97480        0.04269       -0.00255
H         -1.22650       -2.49930        0.00064
