42
anti_C_S_m-CF3benz_2-Cl.log	Energy: -1328693.1591444
C          0.99381        1.73962       -0.80901
C          0.10571        0.88949       -0.14882
C         -1.30479        1.07250       -0.23031
C         -2.15478        0.22367        0.42704
C         -3.60103        0.24240        0.46766
C         -4.09926       -0.75477        1.22088
Cl        -5.76599       -1.07112        1.51638
C         -1.61346       -0.86161        1.20618
S         -2.89601       -1.80966        1.95267
C         -0.27206       -1.07525        1.31309
C          0.63164       -0.20209        0.63564
C          2.01258       -0.37972        0.71426
C          2.90159        0.47341        0.05172
C          4.30704        0.29709        0.12819
C          5.18970        1.13085       -0.52010
C          6.64800        0.96107       -0.45044
C          7.25841       -0.07091        0.28541
C          8.62989       -0.20811        0.33346
C          7.48123        1.86381       -1.14726
C          8.87655        1.71470       -1.09035
C          9.44725        0.69284       -0.36071
C         10.93930        0.53610       -0.27150
F         11.38457        0.78583        0.97347
F         11.31908       -0.71896       -0.57209
F         11.59215        1.36380       -1.10221
C          4.65671        2.22261       -1.30462
C          5.56778        3.10973       -1.99339
C          6.90054        2.94126       -1.92000
C          3.29601        2.41091       -1.39147
C          2.37816        1.55980       -0.72913
H          0.59962        2.56273       -1.40067
H         -1.69749        1.89531       -0.82170
H         -4.21354        0.97217       -0.04688
H          0.12734       -1.89555        1.90241
H          2.40847       -1.20242        1.30555
H          4.66570       -0.53369        0.72726
H          6.65272       -0.78463        0.83193
H          9.07654       -1.01469        0.90577
H          9.50556        2.41427       -1.63123
H          5.14377        3.92259       -2.57658
H          7.57372        3.61519       -2.44253
H          2.90916        3.23620       -1.98505
