39
anti_C_O_2-Cl_tetClbenz.log	Energy: -2068134.7463187
C         -2.90295       -1.79383       -0.10915
C         -1.84264       -0.89913       -0.03102
C         -0.49141       -1.34606       -0.19032
C          0.52362       -0.43997       -0.10771
C          1.97610       -0.48747       -0.20876
C          2.92390       -1.47982       -0.43130
Cl         2.40783       -3.11562       -0.66459
C          4.28155       -1.14081       -0.46325
Cl         5.46839       -2.36798       -0.73968
C          2.40350        0.83038       -0.02154
C          3.73707        1.20179       -0.04660
Cl         4.16625        2.85420        0.19514
C          4.68355        0.19485       -0.27138
Cl         6.35892        0.60874       -0.31116
C          0.22375        0.94191        0.13670
O          1.37642        1.69171        0.18483
C         -1.02597        1.43078        0.29646
C         -2.11640        0.50242        0.21492
C         -3.43237        0.91677        0.36644
C         -4.50842        0.01485        0.28804
C         -5.84625        0.43100        0.44120
C         -6.89796       -0.46688        0.36195
C         -8.26176       -0.04646        0.51769
C         -9.26452       -0.95603        0.43360
Cl       -10.92701       -0.45312        0.62237
C         -6.62456       -1.86243        0.11699
C         -7.73207       -2.77320        0.03931
C         -9.01065       -2.34396        0.19107
C         -5.31490       -2.28290       -0.03508
C         -4.23611       -1.37864        0.04355
H         -2.69664       -2.84558       -0.29368
H         -0.30020       -2.39721       -0.37378
H         -1.20621        2.48419        0.47961
H         -3.64018        1.96798        0.55104
H         -6.05263        1.48257        0.62578
H         -8.47654        1.00111        0.70225
H         -7.52818       -3.82428       -0.14502
H         -9.84675       -3.03175        0.13251
H         -5.10797       -3.33462       -0.21963
