46
anti_S_S_tetClbenz_m-OMebenz.log	Energy: -2351937.6026405
C         -3.61288        0.31398       -1.09776
C         -4.63264       -0.20634       -0.29795
C         -6.00716        0.05819       -0.56949
C         -6.98872       -0.46138        0.22692
C         -8.43515       -0.31043        0.11972
C         -9.17490        0.40055       -0.82054
C        -10.56291        0.42713       -0.75762
C         -9.12430       -1.00025        1.13339
C        -10.50594       -0.98865        1.21667
C        -11.22858       -0.26794        0.26164
O        -12.57439       -0.30312        0.40787
C        -13.36786        0.40203       -0.52152
C         -6.62750       -1.28443        1.35144
S         -8.04355       -1.84844        2.24133
C         -5.32891       -1.56448        1.64988
C         -4.28765       -1.03128        0.83037
C         -2.94290       -1.28958        1.09571
C         -1.92256       -0.76823        0.29470
C         -0.55340       -1.04019        0.57807
C          0.44679       -0.52790       -0.20870
C          1.90743       -0.66609       -0.11816
C          2.71205       -1.36043        0.79535
Cl         2.00612       -2.25954        2.10067
C          4.10725       -1.34559        0.67692
Cl         5.08705       -2.20749        1.81215
C          2.55392        0.04031       -1.15055
C          3.93758        0.06346       -1.27950
Cl         4.64579        0.95955       -2.58047
C          4.72414       -0.63216       -0.36270
Cl         6.44396       -0.61172       -0.51105
C          0.07652        0.29431       -1.33191
S          1.46665        0.87426       -2.24062
C         -1.21918        0.57996       -1.63945
C         -2.26756        0.05429       -0.83044
H         -3.87375        0.93712       -1.95014
H         -6.25910        0.68199       -1.42332
H         -8.66924        0.94269       -1.61456
H        -11.11539        0.98806       -1.50154
H        -11.04528       -1.51754        1.99470
H        -14.40185        0.23698       -0.21746
H        -13.22568        0.02249       -1.54124
H        -13.15186        1.47766       -0.50025
H         -5.06470       -2.18643        2.50031
H         -2.68038       -1.91252        1.94771
H         -0.33081       -1.66294        1.43306
H         -1.46921        1.20343       -2.49308
