49
anti_S_NPh_diOMe_diF.log	Energy: -1131749.5276474
C          0.05607        0.57969       -2.00363
C         -1.20688        0.38000       -1.43297
C         -2.39998        0.61236       -2.17073
C         -3.61283        0.41012       -1.56850
C         -4.97252        0.52924       -2.01366
F         -5.36515        0.91661       -3.22864
C         -5.77097        0.17988       -0.98141
F         -7.08803        0.14938       -0.91691
C         -3.68366       -0.03455       -0.20011
N         -5.03027       -0.17233        0.13887
C         -5.56274       -0.50264        1.41012
C         -6.53038       -1.50029        1.52307
C         -7.05190       -1.81269        2.77346
C         -6.59610       -1.15226        3.91118
C         -5.62358       -0.16292        3.79328
C         -5.11368        0.17406        2.54447
C         -2.56202       -0.28481        0.53826
C         -1.28890       -0.07759       -0.06585
C         -0.10409       -0.31094        0.64091
C          1.15265       -0.11383        0.06867
C          2.35620       -0.35451        0.79444
C          3.57114       -0.15237        0.19998
C          4.89141       -0.35334        0.76322
O          5.06691       -0.83128        2.03595
C          5.00346       -2.24906        2.10853
C          5.88760       -0.03251       -0.10060
O          7.22001       -0.06227        0.01440
C          7.77410       -0.05314        1.32602
C          3.63876        0.31906       -1.15571
S          5.30959        0.53715       -1.67242
C          2.51684        0.56168       -1.88703
C          1.23322        0.34802       -1.29516
H          0.11757        0.92665       -3.03289
H         -2.34035        0.94273       -3.20328
H         -6.86598       -2.02675        0.63619
H         -7.80910       -2.58589        2.85848
H         -6.99856       -1.40689        4.88660
H         -5.26917        0.36196        4.67504
H         -4.37556        0.96282        2.43996
H         -2.62149       -0.64050        1.56191
H         -0.16512       -0.65711        1.67049
H          2.30300       -0.68946        1.82687
H          4.05965       -2.62598        1.69670
H          5.07150       -2.51032        3.16642
H          5.83759       -2.70784        1.56151
H          8.83575        0.15521        1.18973
H          7.64694       -1.02113        1.81822
H          7.31013        0.72641        1.93674
H          2.57369        0.91953       -2.91134
