51
anti_O_NPh_m-OMebenz_2-Cl.log	Energy: -1117520.3022831
C         -2.51256       -2.16285        0.71813
C         -3.71519       -1.49802        0.43929
C         -4.97048       -2.15211        0.56541
C         -6.12662       -1.46976        0.28105
C         -7.52398       -1.82374        0.31169
C         -8.20504       -0.71672       -0.07164
Cl        -9.90513       -0.54634       -0.26154
C         -6.05480       -0.09802       -0.14423
N         -7.35807        0.34733       -0.35468
C         -7.71298        1.65101       -0.79350
C         -7.27962        2.09109       -2.04329
C         -7.59719        3.37670       -2.46786
C         -8.35878        4.21316       -1.65576
C         -8.79392        3.76606       -0.41095
C         -8.46285        2.48903        0.02912
C         -4.87324        0.57742       -0.27090
C         -3.66661       -0.11811        0.01904
C         -2.41886        0.50770       -0.09306
C         -1.22562       -0.15593        0.18565
C          0.03884        0.50291        0.06470
C          1.18291       -0.18276        0.34663
C          2.60377        0.12400        0.34344
C          3.38280        1.24439        0.05121
C          4.75924        1.15707        0.16564
C          3.24335       -1.05020        0.74259
C          4.61794       -1.17738        0.86908
C          5.37511       -0.04207        0.57092
O          6.72711        0.00218        0.64377
C          7.40960       -1.16535        1.04343
C          1.10636       -1.55397        0.76037
O          2.36082       -2.06471        0.99602
C         -0.05559       -2.23538        0.89487
C         -1.27412       -1.53818        0.60490
H         -2.55122       -3.20305        1.03438
H         -5.00021       -3.18867        0.89007
H         -7.95829       -2.77641        0.57392
H         -6.69975        1.42165       -2.67091
H         -7.25787        3.72057       -3.44002
H         -8.61219        5.21367       -1.99244
H         -9.38414        4.41688        0.22656
H         -8.77890        2.13648        1.00548
H         -4.84066        1.61722       -0.58161
H         -2.38062        1.54833       -0.40839
H          0.06655        1.54241       -0.25073
H          2.92002        2.17512       -0.26235
H          5.39707        2.00621       -0.05282
H          5.05409       -2.11656        1.18360
H          8.47008       -0.91166        1.03361
H          7.22860       -1.99431        0.34730
H          7.11971       -1.47294        2.05628
H         -0.07507       -3.27303        1.21070
