36
anti_C_C_3-Cl_3-Cl.log	Energy: -1107969.1235143
C         -2.41635        0.57091        1.54575
C         -3.65128        0.21371        0.99731
C         -4.87271        0.62372        1.58238
C         -6.09048        0.26970        1.03894
C         -7.36316        0.66248        1.59779
Cl        -7.38771        1.64351        3.04710
C         -8.54191        0.29596        1.03612
C         -6.12584       -0.54299       -0.16221
C         -7.39619       -0.90962       -0.72548
C         -8.55550       -0.50658       -0.14980
C         -4.93931       -0.94828       -0.74083
C         -3.68275       -0.59536       -0.19824
C         -2.47884       -1.00293       -0.77988
C         -1.24391       -0.64574       -0.23143
C         -0.02248       -1.05580       -0.81646
C          1.19529       -0.70189       -0.27294
C          2.46797       -1.09479       -0.83172
Cl         2.49252       -2.07577       -2.28106
C          3.64671       -0.72840       -0.26995
C          1.23065        0.11077        0.92822
C          2.50100        0.47727        1.49158
C          3.66030        0.07411        0.91599
C          0.04412        0.51617        1.50677
C         -1.21244        0.16332        0.96413
H         -2.39217        1.18025        2.44617
H         -4.83833        1.23140        2.48063
H         -9.47720        0.61086        1.48541
H         -7.40407       -1.51846       -1.62508
H         -9.51243       -0.78588       -0.57871
H         -4.96843       -1.55746       -1.64128
H         -2.50301       -1.61222       -1.68033
H         -0.05685       -1.66344       -1.71474
H          4.58200       -1.04340       -0.71918
H          2.50887        1.08608        2.39120
H          4.61723        0.35330        1.34497
H          0.07324        1.12536        2.40721
