37
anti_C_S_2-CF3_2-CN.log	Energy: -1001779.1675770
C          0.97588        1.60645       -0.49032
C         -0.13748        0.83263       -0.17257
C         -1.46250        1.31465       -0.37610
C         -2.54026        0.53267       -0.05517
C         -3.94394        0.83695       -0.18542
C         -4.74029       -0.17515        0.23166
C         -6.16314       -0.16998        0.22534
N         -7.32289       -0.16922        0.22164
C         -2.33382       -0.78579        0.49185
S         -3.86334       -1.58895        0.82016
C         -1.08548       -1.28815        0.70374
C          0.05497       -0.49168        0.37688
C          1.34940       -0.96104        0.57505
C          2.47328       -0.18388        0.25588
C          3.78903       -0.65443        0.45445
C          4.88948        0.12020        0.13596
C          6.22962       -0.35465        0.33616
C          7.29385        0.42333        0.01586
C          8.70181       -0.05877        0.21754
F          8.75650       -1.29326        0.73876
F          9.37819       -0.08124       -0.94552
F          9.38097        0.75862        1.04298
C          4.69875        1.44204       -0.41281
C          5.86194        2.22389       -0.73450
C          7.11073        1.73872       -0.53038
C          3.41549        1.91551       -0.61227
C          2.28194        1.13648       -0.29205
H          0.82992        2.60182       -0.90343
H         -1.60703        2.30944       -0.78887
H         -4.32709        1.77266       -0.57425
H         -0.93477       -2.28147        1.11596
H          1.49679       -1.95616        0.98804
H          3.93533       -1.64968        0.86765
H          6.37607       -1.34755        0.74852
H          5.71865        3.21841       -1.14746
H          7.98353        2.33480       -0.77563
H          3.26932        2.91081       -1.02551
