46
anti_S_S_tetFbenz_p-OMebenz.log	Energy: -1447385.8825043
C         -3.66196        0.97631       -0.00558
C         -4.65611       -0.00487       -0.00570
C         -6.04074        0.33296       -0.00677
C         -6.99597       -0.64386       -0.00687
C         -8.44964       -0.50016       -0.00788
C         -9.19469        0.67258       -0.00901
C        -10.58784        0.60772       -0.00987
O        -11.22986        1.80439       -0.01088
C        -12.63937        1.80335       -0.01232
C         -9.10440       -1.74324       -0.00764
C        -10.48931       -1.81237       -0.00850
C        -11.23350       -0.63500       -0.00962
C         -6.60063       -2.02721       -0.00586
S         -7.98870       -3.11466       -0.00617
C         -5.28892       -2.39668       -0.00481
C         -4.27423       -1.39255       -0.00470
C         -2.91762       -1.72094       -0.00364
C         -1.92328       -0.73951       -0.00353
C         -0.54046       -1.08342       -0.00244
C          0.41545       -0.10441       -0.00234
C          1.86858       -0.23251       -0.00131
C          2.65269       -1.38172       -0.00015
F          2.09293       -2.59530        0.00015
C          4.03732       -1.29347        0.00074
F          4.78138       -2.39642        0.00186
C          2.51007        1.01753       -0.00157
C          3.89190        1.11162       -0.00069
F          4.49500        2.30131       -0.00095
C          4.65840       -0.04572        0.00047
F          5.98514        0.02777        0.00133
C          0.01980        1.27860       -0.00336
S          1.40238        2.37995       -0.00305
C         -1.29018        1.65046       -0.00441
C         -2.30564        0.64718       -0.00453
H         -3.95335        2.02421       -0.00634
H         -6.32295        1.38265       -0.00752
H         -8.71988        1.64840       -0.00923
H        -12.94021        2.85155       -0.01329
H        -13.04361        1.31298        0.88274
H        -13.04178        1.31184       -0.90758
H        -11.00000       -2.77013       -0.00831
H        -12.31505       -0.70046       -0.01026
H         -4.99592       -3.44261       -0.00405
H         -2.62549       -2.76855       -0.00289
H         -0.25849       -2.13023       -0.00168
H         -1.58093        2.69698       -0.00517
