62
anti_NPh_NPh_2-OMe_tetFbenz.log	Energy: -1210613.8903716
C         -3.48665       -1.14365       -0.74905
C         -2.30970       -0.41219       -0.57260
C         -1.06371       -0.87635       -1.08589
C          0.06339       -0.13080       -0.88952
C          1.44901       -0.30095       -1.28366
C          2.11220       -1.29859       -1.98028
F          1.44746       -2.36020       -2.44556
C          3.47796       -1.20077       -2.19772
F          4.13346       -2.14876       -2.86982
C          2.15979        0.81534       -0.79520
C          3.53376        0.90850       -0.99506
F          4.25809        1.93186       -0.52931
C          4.17676       -0.09910       -1.70373
F          5.48963       -0.01750       -1.91036
C          0.00292        1.10983       -0.16738
N          1.29016        1.66050       -0.11909
C          1.59780        2.92781        0.44392
C          1.35438        3.15133        1.79800
C          1.62251        4.39990        2.34927
C          2.14805        5.41649        1.55656
C          2.39628        5.18512        0.20587
C          2.11135        3.94633       -0.35632
C         -1.16761        1.60130        0.32994
C         -2.36242        0.84204        0.13884
C         -3.59304        1.28391        0.62704
C         -4.77320        0.55361        0.45169
C         -6.01992        1.01693        0.96236
C         -7.15703        0.27790        0.76895
C         -8.53437        0.45317        1.15659
C         -9.20652       -0.63379        0.68283
O        -10.49353       -0.98042        0.74258
C        -11.33879       -0.04961        1.39550
C         -7.07906       -0.96735        0.04561
N         -8.36444       -1.50961        0.01166
C         -8.75487       -2.69300       -0.66504
C         -8.42422       -2.85697       -2.01032
C         -8.78160       -4.02681       -2.67183
C         -9.48626       -5.02353       -2.00251
C         -9.82560       -4.84938       -0.66328
C         -9.45287       -3.69247        0.01155
C         -5.90945       -1.46110       -0.45088
C         -4.71728       -0.70102       -0.26022
H         -3.44171       -2.08901       -1.28587
H         -1.02340       -1.81361       -1.63150
H          0.96159        2.34416        2.40837
H          1.43167        4.57311        3.40386
H          2.36470        6.38774        1.99041
H          2.80418        5.97530       -0.41674
H          2.28577        3.76151       -1.41133
H         -1.21040        2.54795        0.85907
H         -3.63693        2.22939        1.16362
H         -6.05207        1.95657        1.50735
H         -8.94989        1.28009        1.71149
H        -12.34367       -0.46806        1.34777
H        -11.31242        0.91968        0.88480
H        -11.03697        0.07991        2.44126
H         -7.89322       -2.06523       -2.52929
H         -8.51833       -4.15257       -3.71761
H         -9.77028       -5.93306       -2.52271
H        -10.37322       -5.62392       -0.13506
H         -9.70007       -3.55580        1.05842
H         -5.86569       -2.40975       -0.97687
