47
anti_O_NPh_tetClbenz_2-F.log	Energy: -1973093.2946793
C         -2.77454       -2.16010        1.48147
C         -3.87505       -1.41908        1.03276
C         -5.20786       -1.80791        1.34353
C         -6.26193       -1.06194        0.88462
C         -7.69381       -1.17345        1.03091
C         -8.20575       -0.12169        0.35493
F         -9.47006        0.21373        0.18162
C         -6.00606        0.11260        0.08682
N         -7.24198        0.67950       -0.22775
C         -7.47644        1.81597       -1.04421
C         -6.90218        1.88152       -2.31347
C         -7.11534        3.00301       -3.10729
C         -7.91659        4.04520       -2.64853
C         -8.49871        3.96694       -1.38623
C         -8.27250        2.85994       -0.57588
C         -4.74680        0.53436       -0.22591
C         -3.64233       -0.23360        0.24310
C         -2.32571        0.13700       -0.04501
C         -1.23101       -0.60289        0.40399
C          0.10420       -0.20156        0.09395
C          1.14991       -0.95254        0.55051
C          2.60184       -0.88764        0.45684
C          3.52247       -0.03220       -0.13758
Cl         2.95901        1.34542       -1.02273
C          4.89122       -0.29685       -0.01187
Cl         6.04432        0.76213       -0.74820
C          3.06857       -1.99716        1.16935
C          4.41454       -2.28913        1.31377
Cl         4.89226       -3.68203        2.21205
C          5.33272       -1.42126        0.71128
Cl         7.02255       -1.74398        0.86388
C          0.89039       -2.12485        1.32970
O          2.06672       -2.74269        1.69435
C         -0.34865       -2.55869        1.65809
C         -1.46318       -1.79024        1.19216
H         -2.95144       -3.05350        2.07600
H         -5.37499       -2.69439        1.94890
H         -8.25354       -1.92851        1.55993
H         -6.29997        1.05265       -2.67180
H         -6.66433        3.05460       -4.09339
H         -8.08778        4.91588       -3.27367
H         -9.12317        4.77699       -1.02266
H         -8.70612        2.80203        0.41665
H         -4.57209        1.43214       -0.81045
H         -2.14798        1.03120       -0.63844
H          0.26489        0.69220       -0.49832
H         -0.49949       -3.45381        2.25148
