43
anti_C_S_m-OMebenz_2-F.log	Energy: -962954.8328786
C          0.95368        1.68151       -0.78571
C          0.02653        0.89367       -0.10401
C         -1.37358        1.15570       -0.17098
C         -2.26424        0.36848        0.50655
C         -3.70797        0.47032        0.56444
C         -4.23322       -0.49034        1.33861
F         -5.51748       -0.67871        1.60066
C         -1.77204       -0.73638        1.29464
S         -3.09243       -1.60863        2.07617
C         -0.44514       -1.02518        1.38877
C          0.50045       -0.21492        0.68876
C          1.86899       -0.47103        0.75435
C          2.79915        0.32015        0.06993
C          4.19267        0.06486        0.13272
C          5.11543        0.83735       -0.53729
C          6.56079        0.58888       -0.48416
C          7.12946       -0.46374        0.25922
C          8.48857       -0.67644        0.29373
C          7.43821        1.42796       -1.20063
C          8.82821        1.20960       -1.16485
C          9.35515        0.16564       -0.42391
O         10.67403       -0.12998       -0.32275
C         11.58771        0.68340       -1.02357
C          4.63291        1.94625       -1.33052
C          5.58465        2.76936       -2.04223
C          6.90697        2.52548       -1.98142
C          3.28372        2.21119       -1.40429
C          2.32727        1.42363       -0.71954
H          0.60058        2.51815       -1.38460
H         -1.72477        1.99201       -0.76961
H         -4.29678        1.22051        0.05306
H         -0.08666       -1.85937        1.98506
H          2.22385       -1.30734        1.35279
H          4.51159       -0.77702        0.73918
H          6.49519       -1.13592        0.82675
H          8.91639       -1.49019        0.86959
H          9.46837        1.87820       -1.73039
H         12.57744        0.27867       -0.80943
H         11.54072        1.72577       -0.68288
H         11.40816        0.64861       -2.10586
H          5.20112        3.59720       -2.63277
H          7.60869        3.15447       -2.52300
H          2.93746        3.04928       -2.00535
