33
anti_S_O_2-CF3_diCl.log	Energy: -1519309.0713632
C          1.05068       -1.33759        0.01439
C          2.23357       -0.59456        0.01316
C          3.50786       -1.23675        0.01544
C          4.63310       -0.46363        0.01409
C          6.05624       -0.71920        0.01551
Cl         6.81246       -2.25728        0.01995
C          6.65828        0.48934        0.01274
Cl         8.30509        0.90319        0.01258
C          4.52794        0.95982        0.01040
O          5.77925        1.52737        0.00961
C          3.35041        1.63096        0.00811
C          2.15285        0.84965        0.00951
C          0.89625        1.45538        0.00744
C         -0.28613        0.70924        0.00876
C         -1.56289        1.33557        0.00675
C         -2.70520        0.57783        0.00805
C         -4.08329        1.01395        0.00646
C         -4.95353       -0.01310        0.00851
C         -6.44524        0.10412        0.00584
F         -6.82527        1.38918        0.01153
F         -6.98329       -0.47771       -1.07742
F         -6.98800       -0.48895        1.08059
C         -2.61017       -0.85754        0.01140
S         -4.20333       -1.60208        0.01265
C         -1.40635       -1.49961        0.01355
C         -0.20650       -0.72970        0.01228
H          1.11219       -2.42330        0.01709
H          3.56927       -2.32071        0.01822
H          3.30902        2.71460        0.00534
H          0.83375        2.54105        0.00472
H         -1.62203        2.42071        0.00416
H         -4.38596        2.05365        0.00390
H         -1.34029       -2.58364        0.01619
