55
anti_O_NPh_tetFbenz_diOMe.log	Energy: -1149964.9545165
C         -3.21743       -1.81780        1.51446
C         -4.28060       -1.04668        1.02953
C         -5.62965       -1.33178        1.38145
C         -6.63983       -0.55659        0.87552
C         -8.07021       -0.56668        1.04274
O         -8.77404       -1.45303        1.81251
C         -8.89729       -2.73597        1.21909
C         -8.56912        0.47935        0.31441
O         -9.79752        0.95147        0.10295
C        -10.87984        0.25288        0.70510
C         -6.33627        0.54884        0.00611
N         -7.53840        1.17294       -0.31560
C         -7.69378        2.27893       -1.18958
C         -7.15182        2.22029       -2.47349
C         -7.27387        3.31262       -3.32563
C         -7.95425        4.45339       -2.90924
C         -8.50567        4.50156       -1.63137
C         -8.36864        3.42284       -0.76525
C         -5.05801        0.87030       -0.34587
C         -3.99272        0.06672        0.15685
C         -2.66237        0.33697       -0.17389
C         -1.60402       -0.43376        0.31005
C         -0.25224       -0.13833       -0.04318
C          0.74817       -0.92109        0.45385
C          2.19464       -0.94137        0.32971
C          3.12926       -0.17119       -0.34423
F          2.74994        0.86597       -1.09300
C          4.47667       -0.48690       -0.23610
F          5.39538        0.23729       -0.87402
C          2.62165       -2.02340        1.10772
C          3.96016       -2.35584        1.22932
F          4.37064       -3.38395        1.96776
C          4.88355       -1.57087        0.54515
F          6.17999       -1.85411        0.63337
C          0.44150       -2.02057        1.31636
O          1.58996       -2.67926        1.70430
C         -0.81759       -2.35152        1.68859
C         -1.89088       -1.54841        1.18287
H         -3.43595       -2.65556        2.17297
H         -5.84419       -2.15110        2.06187
H         -9.48703       -2.68700        0.29339
H         -9.40900       -3.37003        1.94596
H         -7.91557       -3.16505        0.98569
H        -11.77209        0.82115        0.44234
H        -10.76245        0.20678        1.79006
H        -10.95780       -0.76264        0.30390
H         -6.64212        1.31797       -2.79654
H         -6.84633        3.26498       -4.32249
H         -8.05503        5.30232       -3.57834
H         -9.03580        5.38931       -1.30025
H         -8.78211        3.45803        0.23642
H         -4.83751        1.71940       -0.98507
H         -2.44319        1.17668       -0.82993
H         -0.03626        0.69944       -0.69835
H         -1.01632       -3.19169        2.34503
