44
anti_S_O_p-CNbenz_m-CNbenz.log	Energy: -1039591.1611097
C         -3.62152        0.33420       -1.35731
C         -4.67737       -0.14071       -0.57496
C         -6.03421        0.15258       -0.90832
C         -7.03479       -0.33107       -0.11645
C         -8.48635       -0.25028       -0.12698
C         -9.43219        0.35358       -0.95076
C        -10.77733        0.21121       -0.63818
C         -8.90698       -0.98293        0.99096
C        -10.23568       -1.14413        1.33024
C        -11.17135       -0.52940        0.48952
C        -12.57098       -0.65938        0.78782
N        -13.70083       -0.76192        1.02521
C         -6.71869       -1.12261        1.03328
O         -7.85921       -1.50914        1.69209
C         -5.45287       -1.43617        1.40315
C         -4.38470       -0.94169        0.59028
C         -3.05180       -1.21715        0.89901
C         -1.99809       -0.74105        0.11497
C         -0.63967       -1.02663        0.43679
C          0.37436       -0.54943       -0.34546
C          1.81458       -0.72831       -0.18788
C          2.49343       -1.43139        0.80228
C          3.88754       -1.48211        0.77327
C          4.59312       -2.20650        1.79298
N          5.16186       -2.79162        2.61637
C          2.54650       -0.08199       -1.19930
C          3.93849       -0.12949       -1.23280
C          4.60669       -0.83205       -0.24272
C          0.06788        0.24683       -1.50193
S          1.52473        0.75397       -2.36097
C         -1.21503        0.54532       -1.84872
C         -2.28989        0.05717       -1.04585
H         -3.84531        0.93741       -2.23420
H         -6.24860        0.75566       -1.78612
H         -9.12842        0.92544       -1.82145
H        -11.53716        0.66989       -1.26079
H        -10.53934       -1.71496        2.19937
H         -5.24776       -2.03876        2.28117
H         -2.82684       -1.81993        1.77567
H         -0.42693       -1.63040        1.31524
H          1.95232       -1.93903        1.59415
H          4.49459        0.37252       -2.01739
H          5.68995       -0.88400       -0.24674
H         -1.44018        1.14765       -2.72403
