51
anti_S_NPh_diCl_p-OMebenz.log	Energy: -1608582.4555744
C         -2.86534       -1.81322        0.18782
C         -1.82339       -0.88651        0.13941
C         -0.46012       -1.30329        0.07272
C          0.53270       -0.37028        0.02973
C          1.98204       -0.46458       -0.05380
C          2.85247       -1.54269       -0.09538
C          4.22590       -1.30072       -0.15649
O          5.01586       -2.40977       -0.19917
C          6.41060       -2.22748       -0.24918
C          2.47510        0.85369       -0.07657
C          3.83794        1.10200       -0.12407
C          4.71009        0.01360       -0.16673
C          0.21426        1.03582        0.05605
N          1.40370        1.75492       -0.00813
C          1.51380        3.16477       -0.01640
C          0.94024        3.91579        1.01063
C          1.04182        5.30260        0.99307
C          1.73267        5.94358       -0.03206
C          2.31368        5.19115       -1.04943
C          2.19683        3.80535       -1.05125
C         -1.07484        1.48333        0.10563
C         -2.13110        0.52433        0.15153
C         -3.46942        0.91678        0.20832
C         -4.51440       -0.01138        0.25613
C         -5.87491        0.40063        0.31471
C         -6.87445       -0.53353        0.36190
C         -8.30908       -0.33397        0.42489
Cl        -9.02026        1.23665        0.45172
C         -9.00654       -1.48887        0.45953
Cl       -10.71011       -1.65990        0.53587
C         -6.55327       -1.93288        0.35209
S         -8.00360       -2.93120        0.41967
C         -5.26300       -2.37049        0.29622
C         -4.20396       -1.41781        0.24651
H         -2.62745       -2.87472        0.17876
H         -0.23091       -2.36554        0.05137
H          2.49748       -2.56798       -0.07779
H          6.84459       -3.22787       -0.27538
H          6.78224       -1.69701        0.63773
H          6.71585       -1.67922       -1.15052
H          4.22826        2.11411       -0.12200
H          5.77546        0.20836       -0.20497
H          0.42467        3.40610        1.81859
H          0.59085        5.88283        1.79235
H          1.81754        7.02577       -0.03827
H          2.84841        5.68483       -1.85519
H          2.62389        3.21259       -1.85427
H         -1.31184        2.54246        0.10538
H         -3.70842        1.97780        0.21576
H         -6.11338        1.46033        0.32172
H         -5.02436       -3.43023        0.28878
