42
anti_O_O_2-CF3_p-CF3benz.log	Energy: -1047687.6727727
C         -2.81021       -1.86972        0.39892
C         -1.77041       -0.96432        0.18761
C         -0.40667       -1.39271        0.17363
C          0.57870       -0.47455       -0.03705
C          2.03053       -0.51756       -0.11889
C          2.98895       -1.51902       -0.01568
C          4.32680       -1.16708       -0.15994
C          5.40686       -2.20309       -0.01886
F          4.91756       -3.45351       -0.04405
F          6.31640       -2.10617       -1.00514
F          6.07857       -2.06298        1.13890
C          2.43075        0.80142       -0.36036
C          3.75794        1.17129       -0.50631
C          4.70482        0.16063       -0.40170
C          0.24159        0.90238       -0.24140
O          1.37180        1.65983       -0.43562
C         -1.02838        1.37312       -0.23951
C         -2.08396        0.43030       -0.02024
C         -3.41881        0.82799       -0.00220
C         -4.46519       -0.07829        0.21006
C         -5.82253        0.35357        0.22439
C         -6.81278       -0.56822        0.43527
C         -8.25753       -0.52622        0.51856
C         -8.64081       -1.79476        0.74754
C        -10.00444       -2.37869        0.92543
F        -10.92767       -1.41275        0.83698
F        -10.26970       -3.29880       -0.01093
F        -10.13142       -2.97241        2.11907
C         -6.47097       -1.94010        0.63610
O         -7.60685       -2.68018        0.82624
C         -5.19908       -2.41597        0.63465
C         -4.15071       -1.47269        0.41699
H         -2.57085       -2.91909        0.55483
H         -0.17742       -2.44293        0.33104
H          2.70520       -2.54892        0.16888
H          4.03755        2.20094       -0.69580
H          5.75691        0.40120       -0.51345
H         -1.24824        2.42337       -0.39741
H         -3.65820        1.87735       -0.15809
H         -6.05134        1.40374        0.06843
H         -8.90545        0.33145        0.42045
H         -4.98005       -3.46651        0.79142
