37
anti_S_O_diCF3_3-CN.log	Energy: -1211831.0583213
C         -0.49945        1.49121        0.54670
C         -1.59562        0.63313        0.43600
C         -2.93071        1.13830        0.44860
C         -3.96618        0.25626        0.33764
C         -5.41730        0.36285        0.30949
C         -6.19158        1.54965        0.40170
N         -6.79959        2.53389        0.47926
C         -5.88419       -0.90238        0.17724
C         -3.71068       -1.14075        0.21195
O         -4.89926       -1.82485        0.11577
C         -2.46974       -1.68649        0.19289
C         -1.36259       -0.78918        0.30718
C         -0.04980       -1.26028        0.29726
C          1.04621       -0.39892        0.40849
C          2.37811       -0.89360        0.39757
C          3.43575       -0.02665        0.50949
C          4.86129       -0.31303        0.52232
C          5.34392       -1.73041        0.40072
F          4.90732       -2.27630       -0.74858
F          6.67135       -1.85004        0.42497
F          4.84946       -2.48070        1.40173
C          5.61696        0.80185        0.65069
C          7.12149        0.93118        0.70737
F          7.63757        0.26999        1.74729
F          7.70141        0.47927       -0.40814
F          7.46424        2.22384        0.84290
C          3.18974        1.38100        0.63702
S          4.68840        2.28047        0.76543
C          1.92666        1.89843        0.65130
C          0.81438        1.01704        0.53696
H         -0.67538        2.55982        0.64358
H         -3.10529        2.20562        0.54526
H         -6.89218       -1.28481        0.11443
H         -2.31311       -2.75508        0.09569
H          0.12812       -2.32852        0.20053
H          2.54092       -1.96145        0.30011
H          1.75225        2.96588        0.74833
