43
anti_C_O_3-OMe_tetFbenz.log	Energy: -947031.5958911
C         -2.61989       -1.49774       -0.84674
C         -1.48107       -0.83293       -0.40736
C         -0.19977       -1.09632       -0.99059
C          0.88822       -0.42122       -0.52829
C          2.30407       -0.41077       -0.85199
C          3.10311       -1.08666       -1.76042
F          2.58040       -1.98580       -2.59520
C          4.46512       -0.82036       -1.79794
F          5.25562       -1.45549       -2.66127
C          2.87890        0.52740        0.01226
C          4.23417        0.80832       -0.00773
F          4.78557        1.69906        0.81193
C          5.02068        0.11975       -0.92705
F          6.32714        0.35823       -0.98121
C          0.74994        0.53926        0.52778
O          1.96735        1.10413        0.84219
C         -0.42823        0.83519        1.12104
C         -1.59731        0.14231        0.65873
C         -2.84671        0.38662        1.21337
C         -3.99978       -0.28382        0.77103
C         -5.26900       -0.03509        1.33472
C         -6.39515       -0.70157        0.89037
C         -7.70157       -0.45188        1.46392
O         -7.70392        0.47486        2.45028
C         -8.93433        0.77609        3.06890
C         -8.80099       -1.12083        1.01102
C         -6.28732       -1.67401       -0.17001
C         -7.47214       -2.35392       -0.61419
C         -8.67154       -2.08182       -0.04196
C         -5.04484       -1.92248       -0.72719
C         -3.88467       -1.25239       -0.28725
H         -2.53050       -2.22926       -1.64670
H         -0.11134       -1.82594       -1.78889
H         -0.49870        1.56748        1.91776
H         -2.93917        1.11740        2.01340
H         -5.36136        0.69399        2.13274
H         -9.65428        1.18060        2.34633
H         -8.71557        1.53077        3.82488
H         -9.36444       -0.11065        3.55133
H         -9.78236       -0.94090        1.43326
H         -7.38576       -3.08513       -1.41248
H         -9.56580       -2.59718       -0.37953
H         -4.95739       -2.65455       -1.52686
