43
anti_S_O_m-CF3benz_3-OMe.log	Energy: -1110761.5288102
C         -3.65459       -0.11085        1.24424
C         -4.62548       -0.86296        0.57294
C         -6.00161       -0.78424        0.93495
C         -6.90724       -1.54056        0.24540
C         -8.34075       -1.72917        0.31128
O         -9.11023       -1.08249        1.20532
C        -10.48782       -1.38621        1.12990
C         -8.66038       -2.62297       -0.65190
C         -6.48373       -2.39306       -0.81668
O         -7.55051       -3.04550       -1.35539
C         -5.18642       -2.50981       -1.20660
C         -4.21515       -1.73274       -0.50642
C         -2.85937       -1.79262       -0.84303
C         -1.89587       -1.04054       -0.17036
C         -0.51528       -1.10746       -0.52002
C          0.41045       -0.36119        0.15322
C          1.85343       -0.29141       -0.05231
C          2.63352       -0.97513       -0.98743
C          4.00296       -0.77238       -1.02254
C          2.47513        0.59466        0.84066
C          3.84954        0.80698        0.81400
C          4.60477        0.11555       -0.12404
C          6.09063        0.33326       -0.21615
F          6.75623       -0.83464       -0.25436
F          6.41953        1.00219       -1.33600
F          6.56939        1.03577        0.82251
C         -0.01208        0.50019        1.22504
S          1.34458        1.36659        1.95072
C         -1.31903        0.59698        1.59446
C         -2.30443       -0.17414        0.90462
H         -3.96600        0.54272        2.05597
H         -6.31369       -0.13229        1.74493
H        -10.98024       -0.79785        1.90407
H        -10.66230       -2.45513        1.31143
H        -10.89385       -1.11558        0.14608
H         -9.59556       -3.05765       -0.96695
H         -4.89165       -3.16619       -2.01836
H         -2.54699       -2.44593       -1.65463
H         -0.21408       -1.76370       -1.33271
H          2.16955       -1.66613       -1.68458
H          4.61456       -1.30377       -1.74390
H          4.32502        1.49111        1.50734
H         -1.63200        1.24915        2.40476
