55
anti_C_NPh_diCN_m-CF3benz.log	Energy: -1085836.4364369
C         -2.70352       -1.92966        0.03468
C         -1.69222       -0.97679        0.03556
C         -0.32504       -1.34499       -0.16652
C          0.64150       -0.38620       -0.15673
C          2.08389       -0.42360       -0.33755
C          2.98919       -1.45459       -0.56458
C          4.34031       -1.15425       -0.67590
C          2.54157        0.90295       -0.22723
C          3.89150        1.21794       -0.32472
C          4.77724        0.16938       -0.55268
C          6.24123        0.47220       -0.73203
F          7.01717       -0.50355       -0.23143
F          6.56011        0.59592       -2.03365
F          6.59711        1.61910       -0.13005
C          0.29466        0.99911        0.05987
N          1.46367        1.75287        0.01230
C          1.54301        3.15979        0.17400
C          1.07186        3.75091        1.34600
C          1.14288        5.13153        1.49720
C          1.70147        5.91908        0.49371
C          2.18025        5.32341       -0.67015
C          2.09223        3.94559       -0.83873
C         -0.99300        1.40485        0.24569
C         -2.02778        0.41858        0.24091
C         -3.36047        0.76739        0.43014
C         -4.38549       -0.19248        0.42988
C         -5.73573        0.16370        0.62363
C         -6.73825       -0.79033        0.62272
C         -8.12750       -0.44875        0.82006
C         -8.47855        0.92577        1.02476
N         -8.72143        2.04748        1.18735
C         -9.09932       -1.42288        0.81298
C        -10.47973       -1.08562        1.00913
N        -11.60370       -0.84978        1.16433
C         -6.40499       -2.17959        0.41957
C         -7.45709       -3.15336        0.42138
C         -8.75340       -2.79892        0.60939
C         -5.08194       -2.53808        0.22852
C         -4.04962       -1.57926        0.22723
H         -2.44782       -2.97547       -0.11968
H         -0.07800       -2.39050       -0.33017
H          2.64733       -2.48165       -0.64804
H          5.06258       -1.94384       -0.84892
H          4.24561        2.23659       -0.21870
H          0.65917        3.12483        2.13099
H          0.77262        5.59098        2.40835
H          1.76363        6.99549        0.61869
H          2.61268        5.93331       -1.45711
H          2.44089        3.47357       -1.75221
H         -1.24750        2.44953        0.39208
H         -3.61984        1.81208        0.58318
H         -5.98559        1.21018        0.77616
H         -7.19568       -4.19636        0.26735
H         -9.54579       -3.53848        0.61001
H         -4.83027       -3.58487        0.07545
