53
anti_C_NPh_diCl_p-CF3benz.log	Energy: -1546896.9833823
C         -2.87388       -1.78263        0.03413
C         -1.82797       -0.86755        0.02616
C         -0.46575       -1.29589       -0.05547
C          0.53446       -0.37236       -0.05782
C          1.98327       -0.47020       -0.14002
C          2.85549       -1.54649       -0.22507
C          4.22356       -1.29698       -0.26734
C          5.19508       -2.43112       -0.41886
F          4.66493       -3.60591       -0.03666
F          5.59543       -2.58018       -1.69654
F          6.30842       -2.23562        0.31112
C          2.48491        0.84547       -0.10411
C          3.85391        1.10195       -0.13563
C          4.71197        0.01480       -0.21991
C          0.22721        1.03516        0.02485
N          1.42877        1.74452       -0.00559
C          1.54973        3.15595        0.05201
C          1.02446        3.85378        1.13943
C          1.13629        5.23910        1.18790
C          1.78774        5.92651        0.16692
C          2.31907        5.22500       -0.91208
C          2.19204        3.84150       -0.97875
C         -1.05200        1.49781        0.09231
C         -2.12304        0.54929        0.09732
C         -3.45079        0.95605        0.16914
C         -4.51070        0.03447        0.17673
C         -5.85680        0.45114        0.25020
C         -6.89971       -0.45825        0.25843
C         -8.29004       -0.06599        0.33259
Cl        -8.67847        1.62663        0.41538
C         -9.27865       -1.00497        0.33734
Cl       -10.95995       -0.57516        0.42475
C         -6.60156       -1.87120        0.19001
C         -7.68199       -2.81364        0.19867
C         -8.96998       -2.40165        0.26939
C         -5.28434       -2.28801        0.11746
C         -4.21435       -1.37190        0.10821
H         -2.64994       -2.84574       -0.01913
H         -0.24905       -2.35896       -0.11915
H          2.48102       -2.56419       -0.25049
H          4.23933        2.11433       -0.08689
H          5.78352        0.18361       -0.24079
H          0.53728        3.30546        1.93970
H          0.72395        5.78105        2.03335
H          1.88050        7.00708        0.21188
H          2.82285        5.75653       -1.71344
H          2.58089        3.28702       -1.82735
H         -1.27483        2.55901        0.13761
H         -3.67820        2.01822        0.22093
H         -6.06562        1.51411        0.30091
H         -7.44876       -3.87310        0.14707
H         -9.79058       -3.10984        0.27618
H         -5.06754       -3.35255        0.06603
