43
anti_C_C_2-F_p-CNbenz.log	Energy: -747688.2278233
C         -2.26905        1.37362        0.43558
C         -3.47958        0.70000        0.57228
C         -4.70974        1.39413        0.74345
C         -5.90925        0.74061        0.87940
C         -7.19045        1.44255        1.05780
C         -7.28056        2.83947        1.10345
C         -8.50493        3.47604        1.27320
C         -8.55666        4.91082        1.31483
N         -8.59786        6.06895        1.34827
C         -8.38184        0.69160        1.18959
C         -9.61078        1.35177        1.36045
C         -9.68566        2.72704        1.40348
C         -5.91507       -0.70802        0.84582
C         -7.17112       -1.41192        0.98688
C         -8.33398       -0.75467        1.14871
C         -4.74043       -1.40090        0.68178
C         -3.49108       -0.74068        0.54018
C         -2.29437       -1.43235        0.37363
C         -1.07112       -0.75978        0.23552
C          0.14923       -1.44930        0.06632
C          1.35099       -0.77761       -0.06893
C          2.59603       -1.47265       -0.24105
C          3.74067       -0.76304       -0.36812
F          4.91329       -1.39389       -0.52963
C          1.36107        0.66824       -0.03682
C          2.61833        1.35132       -0.17874
C          3.77691        0.66381       -0.33979
C          0.17293        1.35607        0.12818
C         -1.05988        0.68311        0.26750
H         -2.25750        2.46105        0.45943
H         -4.66010        2.47823        0.76244
H         -6.39495        3.45628        1.00741
H        -10.51534        0.75848        1.45986
H        -10.63612        3.23224        1.53550
H         -7.15052       -2.49800        0.95832
H         -9.26808       -1.29939        1.25305
H         -4.76088       -2.48813        0.65868
H         -2.30633       -2.51963        0.34985
H          0.13826       -2.53640        0.04255
H          2.61834       -2.55688       -0.26887
H          2.62382        2.43738       -0.15439
H          4.73364        1.16261       -0.44825
H          0.18305        2.44348        0.15207
