53
anti_O_NPh_tetFbenz_benz.log	Energy: -1102673.9239351
C         -3.44713        1.02708       -0.00145
C         -4.51316        0.12337        0.00878
C         -5.86704        0.57101        0.01017
C         -6.88313       -0.33977        0.02243
C         -8.33180       -0.21753        0.01364
C         -9.19441        0.87457        0.00930
C        -10.56619        0.64963        0.01858
C         -8.85230       -1.52539        0.02270
C        -10.22396       -1.76200        0.04356
C        -11.06816       -0.65631        0.03898
C         -6.59304       -1.75052        0.03848
N         -7.80131       -2.44450        0.03853
C         -7.93771       -3.85369        0.04364
C         -7.34837       -4.60658        1.05979
C         -7.47476       -5.99149        1.05538
C         -8.20482       -6.62663        0.05402
C         -8.80068       -5.87147       -0.95268
C         -8.65988       -4.48789       -0.96766
C         -5.31410       -2.22800        0.02537
C         -4.23718       -1.29223        0.01269
C         -2.90516       -1.71332        0.00324
C         -1.83909       -0.81077       -0.00782
C         -0.48540       -1.26602       -0.01697
C          0.52214       -0.34620       -0.02693
C          1.97276       -0.41185       -0.03768
C          2.90552       -1.43731       -0.04189
F          2.51911       -2.71405       -0.03548
C          4.25814       -1.12622       -0.05280
F          5.17547       -2.09220       -0.05699
C          2.40705        0.91832       -0.04446
C          3.75102        1.25107       -0.05539
F          4.16785        2.51447       -0.06188
C          4.67214        0.20805       -0.05948
F          5.97329        0.48102       -0.06987
C          0.22216        1.05234       -0.02829
O          1.37653        1.80608       -0.03898
C         -1.03863        1.54673       -0.02011
C         -2.11746        0.60583       -0.00954
H         -3.66226        2.09333       -0.00410
H         -6.07209        1.63829       -0.00398
H         -8.79964        1.88654        0.00218
H        -11.25271        1.49007        0.01408
H        -10.62120       -2.77111        0.06896
H        -12.14239       -0.81471        0.05439
H         -6.80075       -4.09988        1.84833
H         -7.01206       -6.57444        1.84586
H         -8.30884       -7.70716        0.05809
H         -9.36646       -6.36125       -1.73929
H         -9.09993       -3.89233       -1.76154
H         -5.10168       -3.29240        0.01919
H         -2.68993       -2.77954        0.00424
H         -0.27361       -2.33031       -0.01607
H         -1.23344        2.61365       -0.02159
