39
anti_C_O_2-OMe_diCN.log	Energy: -717362.3914764
C         -2.71825        0.90345        1.34056
C         -3.93506        0.39295        0.89061
C         -5.16939        1.00994        1.25160
C         -6.33280        0.46943        0.78334
C         -7.73972        0.79298        0.92113
C         -8.30237        1.86822        1.65757
N         -8.72529        2.75724        2.26930
C         -8.41150       -0.14610        0.19917
C         -9.80937       -0.30306       -0.00858
N        -10.95145       -0.41523       -0.16676
C         -6.30704       -0.68864       -0.04913
O         -7.58934       -1.04695       -0.39405
C         -5.17209       -1.32354       -0.42968
C         -3.93311       -0.78453        0.04237
C         -2.71711       -1.37047       -0.29772
C         -1.49287       -0.85693        0.15480
C         -0.25707       -1.44853       -0.18814
C          0.94644       -0.93625        0.26209
C          2.20442       -1.53740       -0.08612
C          3.37177       -1.00558        0.37584
O          4.61160       -1.47849        0.11875
C          4.71924       -2.62528       -0.69621
C          0.93841        0.23685        1.10670
C          2.20127        0.75413        1.56451
C          3.36659        0.16240        1.21683
C         -0.26043        0.82720        1.45125
C         -1.49638        0.31286        0.99742
H         -2.71848        1.78581        1.97635
H         -5.17116        1.89102        1.88629
H         -5.19137       -2.20253       -1.06418
H         -2.71499       -2.25282       -0.93323
H         -0.25884       -2.33093       -0.82394
H          2.18956       -2.41647       -0.72057
H          5.78501       -2.83997       -0.77719
H          4.30553       -2.44211       -1.69596
H          4.20607       -3.48325       -0.24374
H          2.20116        1.63567        2.19961
H          4.32483        0.54208        1.55511
H         -0.26037        1.70973        2.08714
