67
anti_NPh_NPh_benz_m-CF3benz.log	Energy: -1197602.4248427
C         -2.74285        1.45669       -1.26546
C         -3.97594        1.20344       -0.65817
C         -5.20224        1.58648       -1.27614
C         -6.38815        1.31944       -0.65469
C         -7.77526        1.58226       -1.00086
C         -8.38714        2.18563       -2.09453
C         -9.77237        2.27450       -2.13198
C         -8.56152        1.07547        0.05259
C         -9.94966        1.14649        0.02335
C        -10.53709        1.75540       -1.08115
C        -12.03741        1.80374       -1.18182
F        -12.51687        0.78578       -1.92048
F        -12.62923        1.72549        0.02274
F        -12.46254        2.93883       -1.76387
C         -6.40641        0.65066        0.61896
N         -7.73629        0.51747        1.02471
C         -8.17325       -0.09839        2.22279
C         -8.97137        0.61093        3.12053
C         -9.41097       -0.00360        4.28831
C         -9.03754       -1.31384        4.57488
C         -8.22973       -2.01439        3.68268
C         -7.80513       -1.41486        2.50205
C         -5.25985        0.27514        1.25637
C         -4.00861        0.54410        0.62443
C         -2.79750        0.18437        1.22002
C         -1.56507        0.43952        0.61401
C         -0.33683        0.07169        1.23978
C          0.84879        0.33321        0.61704
C          2.23817        0.10496        0.98095
C          2.84818       -0.48011        2.08634
C          4.23552       -0.56373        2.12585
C          3.02515        0.60584       -0.07367
C          4.41421        0.51648       -0.04977
C          5.00330       -0.07229        1.06466
C          0.86523        0.97524       -0.67194
N          2.19461        1.12834       -1.06661
C          2.62707        1.72055       -2.27671
C          3.51077        2.80005       -2.24931
C          3.94182        3.37143       -3.44184
C          3.47711        2.88583       -4.66122
C          2.58571        1.81623       -4.68502
C          2.16774        1.22508       -3.49774
C         -0.28116        1.35825       -1.30526
C         -1.53272        1.09417       -0.67125
H         -2.72645        1.95398       -2.23305
H         -5.17544        2.09337       -2.23738
H         -7.79025        2.58336       -2.90964
H        -10.26666        2.74879       -2.97226
H        -10.55543        0.74518        0.82719
H         -9.23667        1.64046        2.90070
H        -10.03660        0.54956        4.98199
H         -9.37522       -1.78800        5.49111
H         -7.93941       -3.03805        3.89845
H         -7.19400       -1.95942        1.78908
H         -5.27843       -0.21315        2.22566
H         -2.81378       -0.31012        2.18902
H         -0.36283       -0.41050        2.21366
H          2.24699       -0.86828        2.90362
H          4.72664       -1.01600        2.98145
H          5.01671        0.88597       -0.87270
H          6.08549       -0.15286        1.10674
H          3.84777        3.18788       -1.29299
H          4.63231        4.20892       -3.41598
H          3.80826        3.33970       -5.59009
H          2.22340        1.42963       -5.63271
H          1.49083        0.37652       -3.50641
H         -0.26214        1.85913       -2.26812
