37
anti_S_S_3-F_m-CNbenz.log	Energy: -1150267.5200481
C         -2.82903       -1.68047        0.11191
C         -1.81758       -0.72014        0.09252
C         -0.44164       -1.08553        0.01831
C          0.53213       -0.12718        0.00035
C          1.97893       -0.29748       -0.07203
C          2.71064       -1.48438       -0.14025
C          4.09345       -1.44197       -0.20364
C          2.65865        0.93279       -0.06855
C          4.04414        0.99412       -0.13149
C          4.75733       -0.20514       -0.19917
C          6.19195       -0.16990       -0.26518
N          7.34959       -0.14523       -0.31852
C          0.16593        1.26300        0.05711
S          1.57778        2.32166        0.02157
C         -1.13453        1.65972        0.12882
C         -2.17025        0.67557        0.14860
C         -3.51581        1.03086        0.22069
C         -4.53310        0.06989        0.24003
C         -5.90409        0.43813        0.31322
C         -6.86792       -0.53402        0.32981
C         -8.30328       -0.39269        0.39945
F         -8.86056        0.81879        0.45903
C         -8.98885       -1.54727        0.39830
C         -6.51140       -1.92184        0.27430
S         -7.94056       -2.95117        0.31082
C         -5.20622       -2.31538        0.20328
C         -4.17977       -1.32686        0.18415
H         -2.55981       -2.73342        0.06963
H         -0.18350       -2.14059       -0.02375
H          2.19928       -2.44193       -0.14379
H          4.67143       -2.35776       -0.25685
H          4.57055        1.94234       -0.12887
H         -1.40480        2.71076        0.17141
H         -3.78513        2.08359        0.26316
H         -6.18016        1.48750        0.35562
H        -10.06215       -1.66424        0.44414
H         -4.93246       -3.36568        0.16099
