57
anti_C_NPh_3-CF3_m-OMebenz.log	Energy: -1041959.0836470
C         -2.74078       -1.87816       -0.02646
C         -1.70850       -0.94878       -0.01593
C         -0.34923       -1.34017       -0.23353
C          0.63946       -0.40405       -0.21302
C          2.07833       -0.46283       -0.40220
C          2.97552       -1.50038       -0.65400
C          4.32578       -1.22256       -0.76631
C          2.56539        0.84690       -0.27155
C          3.92121        1.15324       -0.36883
C          4.79565        0.09561       -0.62048
O          6.13765        0.24313       -0.74149
C          6.68094        1.53624       -0.60101
C          0.31864        0.98389        0.03171
N          1.50540        1.71613       -0.01114
C          1.61326        3.11480        0.17737
C          1.13967        3.69786        1.35323
C          1.23889        5.07356        1.53085
C          1.82814        5.86755        0.55020
C          2.30864        5.28161       -0.61797
C          2.19250        3.90934       -0.81274
C         -0.95816        1.41249        0.23163
C         -2.01592        0.44841        0.21615
C         -3.33908        0.82134        0.41965
C         -4.38655       -0.11561        0.40957
C         -5.72757        0.26771        0.61821
C         -6.76077       -0.65629        0.60987
C         -8.15111       -0.31167        0.81972
C         -8.53941        1.12170        1.06412
F         -8.19063        1.91911        0.03525
F         -9.86189        1.27070        1.24110
F         -7.93951        1.62473        2.16119
C         -9.12004       -1.26638        0.79952
C         -6.44846       -2.04885        0.37988
C         -7.51123       -3.01284        0.36919
C         -8.79996       -2.63916        0.57107
C         -5.13417       -2.43365        0.17379
C         -4.07867       -1.50236        0.18103
H         -2.50936       -2.92683       -0.20055
H         -0.12588       -2.38769       -0.41818
H          2.62043       -2.52143       -0.75908
H          5.05032       -2.00464       -0.96311
H          4.26593        2.17172       -0.24299
H          7.75773        1.42589       -0.73355
H          6.47884        1.95161        0.39457
H          6.29038        2.22171       -1.36428
H          0.70131        3.06730        2.12042
H          0.86542        5.52416        2.44530
H          1.91107        6.94015        0.69532
H          2.76214        5.89633       -1.38957
H          2.54028        3.44576       -1.73081
H         -1.19130        2.45963        0.39662
H         -3.57452        1.86905        0.59254
H         -5.93138        1.31856        0.78793
H        -10.15443       -0.98530        0.95909
H         -7.25723       -4.05511        0.19452
H         -9.59870       -3.37355        0.56163
H         -4.90911       -3.48395        0.00149
