39
anti_C_O_2-F_benz.log	Energy: -688445.5626385
C         -2.93132       -1.74205       -0.21484
C         -1.86669       -0.86279       -0.06571
C         -0.51416       -1.29205       -0.26533
C          0.50116       -0.39918       -0.10998
C          1.95154       -0.45309       -0.22224
C          2.87885       -1.44322       -0.53404
C          4.23000       -1.11003       -0.54222
C          2.39739        0.83996        0.07242
C          3.73457        1.19516        0.07064
C          4.64834        0.19114       -0.24379
C          0.21050        0.96017        0.25151
O          1.36346        1.69452        0.35768
C         -1.04156        1.43174        0.45508
C         -2.13449        0.51502        0.29864
C         -3.44925        0.91849        0.48864
C         -4.53057        0.03177        0.33841
C         -5.86639        0.43841        0.53005
C         -6.92454       -0.44293        0.37920
C         -8.28750       -0.03613        0.57237
C         -9.28074       -0.94124        0.41110
F        -10.56098       -0.57859        0.58739
C         -6.65490       -1.81501        0.01643
C         -7.76228       -2.71732       -0.13634
C         -9.04054       -2.30085        0.05350
C         -5.34625       -2.22534       -0.17411
C         -4.26322       -1.33669       -0.02340
H         -2.73064       -2.77577       -0.48812
H         -0.32145       -2.32595       -0.53834
H          2.55462       -2.45325       -0.76582
H          4.96924       -1.86730       -0.78262
H          4.04733        2.20663        0.30348
H          5.70802        0.42695       -0.25662
H         -1.22408        2.46562        0.72732
H         -3.65209        1.95146        0.76187
H         -6.06706        1.47180        0.80314
H         -8.52047        0.98772        0.84517
H         -7.55725       -3.74884       -0.40911
H         -9.88749       -2.96884       -0.05777
H         -5.14487       -3.25898       -0.44729
