57
anti_C_NPh_p-CNbenz_tetClbenz.log	Energy: -2066471.0219106
C         -2.75026       -1.78911       -0.04725
C         -1.70100       -0.87085       -0.00905
C         -0.37720       -1.28378        0.32810
C          0.63349       -0.36352        0.35798
C          2.05975       -0.41942        0.64795
C          2.91522       -1.45520        1.00652
Cl         2.29484       -3.06453        1.18122
C          4.27103       -1.20032        1.22533
Cl         5.33802       -2.48837        1.67043
C          2.56520        0.89511        0.50528
C          3.91828        1.16503        0.72335
Cl         4.55636        2.76869        0.56029
C          4.76281        0.10782        1.08248
Cl         6.44182        0.41807        1.35568
C          0.35079        1.01079        0.04952
N          1.53026        1.74546        0.14662
C          1.55599        3.14779       -0.12365
C          1.28783        4.04902        0.90225
C          1.27441        5.41250        0.62854
C          1.51714        5.86629       -0.66564
C          1.76663        4.95708       -1.69084
C          1.78042        3.59251       -1.42315
C         -0.89431        1.45783       -0.27906
C         -1.96427        0.51589       -0.31657
C         -3.26516        0.89881       -0.64388
C         -4.31670       -0.02320       -0.68165
C         -5.64100        0.36310       -1.01396
C         -6.68132       -0.53670       -1.05368
C         -8.05972       -0.15426       -1.39546
C         -8.41739        1.16414       -1.70722
C         -9.72839        1.49708       -2.02652
C        -10.05595        2.85987       -2.34037
N        -10.31968        3.96008       -2.59358
C         -9.07134       -1.14320       -1.41371
C        -10.39239       -0.78782       -1.73912
C        -10.73027        0.51225       -2.04372
C         -6.40868       -1.92226       -0.74548
C         -7.48928       -2.88173       -0.78287
C         -8.74606       -2.51667       -1.09791
C         -5.13104       -2.31814       -0.42043
C         -4.05302       -1.40165       -0.37593
H         -2.54974       -2.83273        0.18445
H         -0.19928       -2.32776        0.55493
H          1.10416        3.67522        1.90449
H          1.07572        6.12065        1.42675
H          1.50836        6.93118       -0.87657
H          1.95140        5.31030       -2.70037
H          1.97459        2.86804       -2.20767
H         -1.07919        2.50222       -0.50850
H         -3.46664        1.94211       -0.87583
H         -5.80378        1.41231       -1.23910
H         -7.67689        1.95504       -1.70589
H        -11.15586       -1.56056       -1.74809
H        -11.75043        0.78177       -2.29408
H         -7.25814       -3.91710       -0.54742
H         -9.54694       -3.25025       -1.12158
H         -4.93888       -3.36378       -0.19041
