41
anti_S_NPh_diCl_3-Cl.log	Energy: -1728742.5004715
C          0.58097       -0.17867        2.23308
C         -0.80278       -0.26455        2.03786
C         -1.70122       -0.35286        3.13549
C         -3.04724       -0.43123        2.89757
C         -4.20495       -0.55212        3.74613
Cl        -4.17986       -0.60509        5.47107
C         -5.30540       -0.60311        2.95722
C         -3.55369       -0.41553        1.55024
N         -4.93985       -0.51495        1.62205
C         -5.84570       -0.53781        0.53482
C         -5.75029        0.42069       -0.47500
C         -6.64588        0.39205       -1.53800
C         -7.65009       -0.57136       -1.58727
C         -7.75054       -1.51578       -0.56951
C         -6.84480       -1.50988        0.48587
C         -2.72313       -0.35337        0.46492
C         -1.32041       -0.27242        0.68848
C         -0.41939       -0.19934       -0.37946
C          0.95861       -0.11551       -0.18094
C          1.86639       -0.04095       -1.27629
C          3.21192        0.04183       -1.04808
C          4.29757        0.12541       -2.00573
Cl         4.02483        0.13268       -3.70817
C          5.51431        0.19481       -1.42659
Cl         7.02759        0.30302       -2.22292
C          3.71560        0.05410        0.29863
S          5.47404        0.16647        0.33069
C          2.88376       -0.01565        1.37505
C          1.47405       -0.10331        1.16609
H          0.96793       -0.17186        3.24955
H         -1.31507       -0.36541        4.15069
H         -6.34770       -0.66836        3.23434
H         -4.98786        1.19046       -0.41315
H         -6.56729        1.13810       -2.32274
H         -8.35192       -0.58544       -2.41505
H         -8.52780       -2.27294       -0.60271
H         -6.89764       -2.26481        1.26458
H         -3.10537       -0.37327       -0.55046
H         -0.80544       -0.20772       -1.39627
H          1.48097       -0.05073       -2.29176
H          3.26914       -0.00638        2.39056
