36
anti_S_O_2-F_tetFbenz.log	Energy: -1138726.7478906
C         -2.87851       -1.77098       -0.00398
C         -1.81519       -0.86746        0.03678
C         -0.46306       -1.31235       -0.08321
C          0.54164       -0.39151       -0.03803
C          1.99025       -0.44656       -0.12166
C          2.92237       -1.46019       -0.27971
F          2.53711       -2.73162       -0.39545
C          4.27285       -1.14160       -0.31736
F          5.18960       -2.09537       -0.46819
C          2.42187        0.87879       -0.00247
C          3.76324        1.21928       -0.03739
F          4.17822        2.47781        0.07530
C          4.68435        0.18809       -0.19688
F          5.98264        0.46865       -0.23603
C          0.23970        0.99753        0.12736
O          1.39011        1.75403        0.14685
C         -1.01941        1.48167        0.24683
C         -2.09692        0.53944        0.20310
C         -3.42388        0.95217        0.31809
C         -4.48910        0.04655        0.27701
C         -5.84092        0.47650        0.39471
C         -6.86723       -0.43002        0.35097
C         -8.29223       -0.19481        0.45116
C         -8.98157       -1.34236        0.36315
F        -10.29670       -1.47819        0.41713
C         -6.56489       -1.82993        0.18409
S         -8.03224       -2.80808        0.15556
C         -5.28626       -2.28599        0.06768
C         -4.20665       -1.35504        0.11109
H         -2.66494       -2.83011       -0.12933
H         -0.25086       -2.36916       -0.20819
H         -1.21395        2.54125        0.37112
H         -3.63793        2.01103        0.44341
H         -6.04964        1.53560        0.51984
H         -8.75329        0.77561        0.58003
H         -5.06985       -3.34303       -0.05774
