51
anti_S_NPh_m-OMebenz_2-F.log	Energy: -1094058.3383534
C         -2.69293       -2.32645        0.79637
C         -3.85030       -1.59763        0.49572
C         -5.14480       -2.17798        0.60959
C         -6.25595       -1.43738        0.30271
C         -7.67336       -1.71653        0.32654
C         -8.27050       -0.57343       -0.07382
F         -9.55762       -0.32198       -0.22891
C         -6.09858       -0.07276       -0.13553
N         -7.37722        0.44204       -0.36181
C         -7.70256        1.72666       -0.86609
C         -7.08624        2.18631       -2.03000
C         -7.39023        3.45325       -2.51538
C         -8.32228        4.25176       -1.85796
C         -8.94483        3.78158       -0.70486
C         -8.63021        2.52531       -0.19883
C         -4.88075        0.53316       -0.24618
C         -3.71678       -0.22603        0.06712
C         -2.43698        0.33043       -0.03052
C         -1.28743       -0.39924        0.27099
C          0.01521        0.17375        0.16911
C          1.12756       -0.56092        0.46857
C          2.53041       -0.16499        0.42863
C          3.08665        1.06872        0.07354
C          4.45554        1.24897        0.09944
C          3.39210       -1.20046        0.80712
C          4.77667       -1.04260        0.84103
C          5.30433        0.19652        0.48234
O          6.62818        0.48654        0.47092
C          7.53422       -0.52716        0.84474
C          0.97814       -1.92899        0.89133
S          2.53862       -2.68745        1.22453
C         -0.24300       -2.51924        1.00416
C         -1.42003       -1.76878        0.69609
H         -2.79298       -3.36068        1.11887
H         -5.23706       -3.20712        0.94565
H         -8.16776       -2.63530        0.60006
H         -6.37972        1.54668       -2.54929
H         -6.90611        3.81051       -3.41903
H         -8.56342        5.23737       -2.24359
H         -9.67124        4.39989       -0.18667
H         -9.09615        2.16213        0.71078
H         -4.78286        1.56846       -0.55741
H         -2.33605        1.36508       -0.35167
H          0.10540        1.20861       -0.15202
H          2.44215        1.89087       -0.22424
H          4.90534        2.19760       -0.17215
H          5.41215       -1.86771        1.13963
H          8.52827       -0.08604        0.76494
H          7.46750       -1.39323        0.17381
H          7.36573       -0.85559        1.87839
H         -0.34538       -3.55234        1.32435
