40
anti_C_O_2-OMe_3-CF3.log	Energy: -813088.6999473
C         -2.82124        0.60613        1.15977
C         -3.97533       -0.07536        0.78116
C         -5.27240        0.43902        1.08992
C         -6.37261       -0.26637        0.69783
C         -7.80807       -0.09499        0.81359
C         -8.51988        1.03342        1.46122
F         -8.16808        1.16261        2.75289
F         -8.23341        2.20545        0.86702
F         -9.85202        0.86753        1.41483
C         -8.36887       -1.16098        0.21125
C         -6.21897       -1.49892       -0.00857
O         -7.45488       -2.02711       -0.29510
C         -5.02149       -2.04334       -0.33369
C         -3.84582       -1.32809        0.06236
C         -2.57420       -1.81305       -0.22896
C         -1.41123       -1.12700        0.15227
C         -0.11878       -1.61574       -0.14081
C          1.02291       -0.93341        0.23942
C          2.33907       -1.42962       -0.05804
C          3.44224       -0.73064        0.33239
O          4.72751       -1.09352        0.11150
C          4.95479       -2.29980       -0.58232
C          0.88866        0.31382        0.95615
C          2.08841        1.00789        1.34298
C          3.31144        0.51139        1.04644
C         -0.36789        0.80531        1.24999
C         -1.54089        0.11742        0.86691
H         -2.91606        1.54589        1.69931
H         -5.36511        1.37670        1.62894
H         -9.40302       -1.43571        0.06738
H         -4.94498       -2.98221       -0.87121
H         -2.47757       -2.75265       -0.76822
H         -0.02574       -2.55555       -0.68065
H          2.41850       -2.36723       -0.59691
H          6.03731       -2.40860       -0.65469
H          4.52219       -2.26644       -1.59049
H          4.53645       -3.15646       -0.03850
H          1.99328        1.94637        1.88244
H          4.22306        1.02525        1.33261
H         -0.46270        1.74507        1.78988
