54
anti_S_NPh_m-CNbenz_tetClbenz.log	Energy: -2267763.3797518
C         -3.73320        1.13504        0.07134
C         -4.74012        0.16500        0.05058
C         -6.11566        0.53570        0.09450
C         -7.08090       -0.43432        0.07240
C         -8.53699       -0.42923        0.09674
C         -9.48225        0.58927        0.15443
Cl        -8.96508        2.24273        0.21153
C        -10.84439        0.28112        0.16491
Cl       -12.02249        1.54713        0.23142
C         -8.95847       -1.77967        0.04902
C        -10.31743       -2.10295        0.06871
Cl       -10.85312       -3.75139        0.03772
C        -11.25240       -1.06282        0.12327
Cl       -12.94002       -1.43858        0.14274
C         -6.69628       -1.81545        0.00786
N         -7.84457       -2.60388       -0.00111
C         -7.76938       -4.02438       -0.13004
C         -7.61019       -4.80853        1.00844
C         -7.49749       -6.18869        0.87787
C         -7.53560       -6.77513       -0.38476
C         -7.67799       -5.98189       -1.52081
C         -7.78799       -4.60130       -1.39652
C         -5.39524       -2.22231       -0.03922
C         -4.37525       -1.22811       -0.01794
C         -3.02040       -1.56678       -0.06161
C         -2.01674       -0.59658       -0.04063
C         -0.63645       -0.94800       -0.08517
C          0.32896        0.01963       -0.06370
C          1.77848       -0.13754       -0.10119
C          2.52191       -1.31731       -0.16771
C          3.90540       -1.26286       -0.19451
C          2.44748        1.09817       -0.06205
C          3.83368        1.17139       -0.08816
C          4.55854       -0.02088       -0.15477
C          5.99400        0.02663       -0.18280
N          7.15242        0.06170       -0.20545
C         -0.05016        1.40497        0.00426
S          1.35302        2.47629        0.02062
C         -1.35621        1.78838        0.04876
C         -2.38155        0.79452        0.02762
H         -4.01407        2.18447        0.12286
H         -6.37135        1.58699        0.14331
H         -7.58838       -4.33245        1.98352
H         -7.38321       -6.80627        1.76312
H         -7.45130       -7.85292       -0.48399
H         -7.70376       -6.43825       -2.50526
H         -7.90058       -3.96612       -2.26943
H         -5.13202       -3.27379       -0.09152
H         -2.74018       -2.61638       -0.11336
H         -0.36710       -1.99986       -0.13651
H          2.01877       -2.27873       -0.19853
H          4.49239       -2.17304       -0.24599
H          4.35179        2.12372       -0.05802
H         -1.63787        2.83610        0.10015
