33
anti_C_O_diF_3-F.log	Energy: -716553.5432857
C         -2.58267        0.84275        1.14511
C         -3.79470        0.24553        0.81100
C         -5.03662        0.78623        1.26661
C         -6.19537        0.16081        0.90936
C         -7.60189        0.37240        1.14765
F         -8.11265        1.36583        1.86919
C         -8.28271       -0.60072        0.51776
C         -6.16838       -1.01448        0.09344
O         -7.43927       -1.46434       -0.13544
C         -5.02442       -1.57596       -0.36998
C         -3.78762       -0.94769       -0.01550
C         -2.56973       -1.46069       -0.44978
C         -1.34707       -0.85928       -0.11311
C         -0.11252       -1.38061       -0.55390
C          1.08029       -0.77207       -0.21059
C          2.34467       -1.28363       -0.64639
F          2.35685       -2.38443       -1.40805
C          3.50674       -0.67578       -0.30177
F          4.67795       -1.16958       -0.71903
C          1.08365        0.41645        0.61101
C          2.34143        1.02358        0.94871
C          3.51274        0.49653        0.50812
C         -0.12492        0.93072        1.04541
C         -1.35414        0.32610        0.70741
H         -2.58732        1.73705        1.76421
H         -5.04305        1.67848        1.88492
H         -9.33736       -0.81150        0.44037
H         -5.03574       -2.46791       -0.98700
H         -2.56222       -2.35462       -1.06893
H         -0.10221       -2.27280       -1.17163
H          2.33952        1.91668        1.56610
H          4.47193        0.93995        0.75206
H         -0.13152        1.82511        1.66426
