40
anti_O_O_2-CN_p-CF3benz.log	Energy: -894106.0062817
C         -2.92402       -1.77529        0.35651
C         -1.85744       -0.89782        0.16425
C         -0.50598       -1.36456        0.16083
C          0.50680       -0.47283       -0.03163
C          1.95766       -0.55605       -0.09944
C          2.88658       -1.58518        0.00417
C          4.23484       -1.26944       -0.12395
C          5.28493       -2.33619        0.01595
F          4.75978       -3.57187       -0.00910
F          6.19559       -2.26486       -0.97135
F          5.96127       -2.21506        1.17293
C          2.39715        0.75299       -0.32516
C          3.73546        1.08709       -0.45483
C          4.65232        0.04933       -0.35011
C          0.21099        0.91531       -0.22728
O          1.36343        1.64167       -0.40315
C         -1.04490        1.42191       -0.23459
C         -2.12898        0.50734       -0.03496
C         -3.45150        0.94261       -0.02835
C         -4.52575        0.06393        0.16447
C         -5.86872        0.53388        0.16673
C         -6.88726       -0.36320        0.35897
C         -8.32660       -0.27749        0.42495
C         -8.75813       -1.54061        0.64054
C        -10.08354       -2.03749        0.78868
N        -11.17270       -2.41554        0.90582
C         -6.58845       -1.74591        0.55269
O         -7.74366       -2.45699        0.72406
C         -5.32927       -2.25631        0.56134
C         -4.25352       -1.34101        0.36328
H         -2.71592       -2.83217        0.50597
H         -0.30807       -2.42211        0.31128
H          2.57264       -2.60837        0.17679
H          4.04547        2.11020       -0.63215
H          5.71187        0.26105       -0.44929
H         -1.23325        2.47927       -0.38562
H         -3.65963        1.99949       -0.17788
H         -6.06723        1.59102        0.01690
H         -8.94920        0.59935        0.32600
H         -5.14118       -3.31372        0.71177
