37
anti_S_O_tetFbenz_3-CN.log	Energy: -1134341.6456508
C         -3.82978        0.40348        0.92085
C         -4.82409       -0.42757        0.39198
C         -6.20398       -0.18248        0.65370
C         -7.13388       -1.02439        0.11273
C         -8.58572       -1.11637        0.13881
C         -9.48851       -0.25130        0.81200
N        -10.20428        0.46994        1.37055
C         -8.90677       -2.19819       -0.61196
C         -6.72330       -2.12267       -0.69548
O         -7.82526       -2.82339       -1.12529
C         -5.42882       -2.41127       -0.98265
C         -4.43317       -1.54898       -0.43133
C         -3.07382       -1.76804       -0.67314
C         -2.08746       -0.93635       -0.14329
C         -0.70381       -1.17057       -0.39739
C          0.24493       -0.34129        0.13302
C          1.69655       -0.39702        0.00195
C          2.48396       -1.30739       -0.69550
F          1.92927       -2.31411       -1.37722
C          3.86639       -1.18978       -0.69861
F          4.61389       -2.06336       -1.36748
C          2.33133        0.64250        0.70187
C          3.71084        0.76493        0.70249
F          4.30797        1.75363        1.36868
C          4.48105       -0.15287        0.00106
F          5.80528       -0.04931       -0.00793
C         -0.15669        0.77328        0.95159
S          1.21904        1.71625        1.53548
C         -1.46568        1.03263        1.21900
C         -2.47618        0.18060        0.67649
H         -4.12489        1.24713        1.54016
H         -6.49712        0.66032        1.27245
H         -9.86407       -2.63174       -0.86057
H         -5.15286       -3.25718       -1.60256
H         -2.77693       -2.61121       -1.29227
H         -0.41740       -2.01372       -1.01564
H         -1.76100        1.87522        1.83734
