36
anti_S_O_diF_tetFbenz.log	Energy: -1200973.1089735
C         -2.88886       -1.81930        0.03808
C         -1.82641       -0.91461        0.06156
C         -0.47530       -1.35952       -0.07191
C          0.52883       -0.43772       -0.04339
C          1.97628       -0.49244       -0.14378
C          2.90682       -1.50675       -0.30727
F          2.52047       -2.77868       -0.41160
C          4.25650       -1.18770       -0.36241
F          5.17189       -2.14159       -0.51877
C          2.40846        0.83362       -0.03675
C          3.74908        1.17475       -0.08916
F          4.16453        2.43385        0.01190
C          4.66863        0.14296       -0.25389
F          5.96597        0.42368       -0.30976
C          0.22813        0.95241        0.11811
O          1.37773        1.70918        0.12004
C         -1.02971        1.43654        0.24971
C         -2.10683        0.49322        0.22361
C         -3.43228        0.90608        0.35190
C         -4.49698       -0.00080        0.32819
C         -5.84675        0.42945        0.45952
C         -6.86013       -0.48911        0.43090
C         -8.28096       -0.27115        0.54491
F         -8.79855        0.94685        0.70316
C         -8.99808       -1.40505        0.47481
F        -10.31379       -1.51150        0.54855
C         -6.57239       -1.88727        0.26917
S         -8.04161       -2.86744        0.26354
C         -5.29324       -2.33915        0.14045
C         -4.21634       -1.40406        0.16652
H         -2.67560       -2.87878       -0.08405
H         -0.26380       -2.41679       -0.19375
H         -1.22361        2.49660        0.37058
H         -3.64622        1.96518        0.47402
H         -6.06697        1.48563        0.58180
H         -5.07537       -3.39626        0.01819
