58
anti_NPh_NPh_C_diCF3.log	Energy: -1216262.0639330
C          0.78317       -0.55688        1.02337
C          2.08141       -0.11954        0.73448
C          2.99419        0.20407        1.77338
C          4.26076        0.63320        1.45665
C          5.42181        1.02866        2.22694
C          5.51353        1.07123        3.71830
F          4.45639        0.45630        4.28095
F          6.61222        0.44933        4.17863
F          5.53457        2.32481        4.20078
C          6.39700        1.37168        1.33281
C          7.79487        1.86411        1.59029
F          7.93570        2.32058        2.83423
F          8.69826        0.88485        1.40852
F          8.11420        2.86379        0.75490
C          4.63906        0.75082        0.07851
N          5.95408        1.20219        0.03646
C          6.68477        1.38279       -1.17599
C          6.33120        2.42304       -2.03176
C          7.01256        2.58198       -3.23311
C          8.04575        1.71084       -3.57074
C          8.39198        0.67313       -2.70998
C          7.70519        0.49852       -1.51298
C          3.80171        0.44147       -0.95723
C          2.48839       -0.00433       -0.64747
C          1.57173       -0.33716       -1.64965
C          0.27780       -0.77487       -1.35996
C         -0.63986       -1.12136       -2.39251
C         -1.90195       -1.54524       -2.07103
C         -3.03483       -1.98392       -2.85227
C         -4.01827       -2.30307       -1.97753
C         -2.29943       -1.63001       -0.68619
N         -3.61205       -2.09449       -0.66535
C         -4.40860       -2.33754        0.47611
C         -4.49775       -1.38153        1.48970
C         -5.28935       -1.63007        2.60536
C         -6.01209       -2.81590        2.70754
C         -5.93218       -3.76051        1.68816
C         -5.12477       -3.53091        0.57951
C         -1.44949       -1.32848        0.34007
C         -0.13157       -0.88661        0.02326
H          0.47975       -0.64267        2.06455
H          2.67626        0.10617        2.80429
H          5.53131        3.09869       -1.74591
H          6.74150        3.39279       -3.90195
H          8.58064        1.84088       -4.50639
H          9.19383       -0.00948       -2.97294
H          7.95619       -0.31224       -0.83808
H          4.11974        0.52936       -1.99134
H          1.87756       -0.25370       -2.69036
H         -0.32159       -1.05354       -3.42941
H         -3.09566       -2.03821       -3.92932
H         -5.02525       -2.64925       -2.16666
H         -3.96163       -0.44345        1.38959
H         -5.35339       -0.88360        3.39119
H         -6.63446       -3.00255        3.57699
H         -6.48791       -4.69036        1.76148
H         -5.03201       -4.28004       -0.20101
H         -1.74613       -1.42570        1.37955
