50
anti_C_S_p-OMebenz_m-CNbenz.log	Energy: -1054954.2525165
C         -2.81217       -1.11067        0.67652
C         -1.67187       -0.57732        0.07719
C         -0.37457       -0.76358        0.63918
C          0.72912       -0.23154        0.03457
C          2.12513       -0.31088        0.44971
C          2.66368       -0.95171        1.56693
C          4.02936       -0.91544        1.79453
C          2.98141        0.36723       -0.43533
C          4.35237        0.41380       -0.22278
C          4.87078       -0.23401        0.90124
C          6.28608       -0.20101        1.14454
N          7.42785       -0.17589        1.34325
C          0.58138        0.52392       -1.18108
S          2.13138        1.11505       -1.78550
C         -0.63585        0.72844       -1.75514
C         -1.80523        0.18209       -1.14148
C         -3.07266        0.36459       -1.69098
C         -4.21792       -0.17057       -1.08951
C         -5.51059        0.01225       -1.64407
C         -6.64260       -0.50918       -1.06111
C         -7.98884       -0.32491       -1.62776
C         -8.21514        0.39675       -2.80275
C         -9.49511        0.55831       -3.32026
O         -9.57766        1.28045       -4.46622
C        -10.85093        1.47632       -5.03924
C         -9.09832       -0.89828       -0.96074
C        -10.37976       -0.72461       -1.49749
C        -10.59445       -0.00848       -2.66153
C         -6.50219       -1.27056        0.16071
C         -7.68002       -1.82854        0.78953
C         -8.90365       -1.65180        0.25850
C         -5.25595       -1.45898        0.71458
C         -4.08430       -0.92680        0.12387
H         -2.71132       -1.68346        1.59573
H         -0.28228       -1.33713        1.55800
H          2.01489       -1.47929        2.25916
H          4.45763       -1.40988        2.65926
H          5.01428        0.93653       -0.90465
H         -0.74050        1.29972       -2.67295
H         -3.17545        0.93710       -2.61008
H         -5.57644        0.58847       -2.56131
H         -7.40481        0.85772       -3.35524
H        -10.68670        2.07064       -5.93872
H        -11.51842        2.02429       -4.36182
H        -11.31938        0.52339       -5.31705
H        -11.22852       -1.16666       -0.98194
H        -11.60193        0.10341       -3.04456
H         -7.54797       -2.39665        1.70622
H         -9.78056       -2.07634        0.74051
H         -5.16314       -2.03335        1.63369
