49
anti_C_O_tetClbenz_m-OMebenz.log	Energy: -1947964.2131907
C         -2.86059       -1.75832        0.16092
C         -1.76598       -0.91533       -0.02544
C         -0.44573       -1.31859        0.34959
C          0.59752       -0.46289        0.15439
C          2.02942       -0.50263        0.39523
C          2.92756       -1.43109        0.92498
C          4.26914       -1.10293        0.99791
C          2.51913        0.72775       -0.04336
C          3.85453        1.09406        0.01262
C          4.73294        0.14818        0.54656
O          6.06544        0.34523        0.67301
C          6.60129        1.57688        0.24052
C          0.36017        0.82881       -0.42368
O          1.53001        1.53625       -0.53697
C         -0.86292        1.27170       -0.80024
C         -1.97720        0.39303       -0.60563
C         -3.26820        0.77192       -0.96686
C         -4.36402       -0.08108       -0.78715
C         -5.67244        0.30201       -1.18032
C         -6.76362       -0.52863       -1.03664
C         -8.13656       -0.17537       -1.45818
C         -8.46359        0.81211       -2.41845
Cl        -7.26557        1.50014       -3.48122
C         -9.78357        1.21080       -2.63460
Cl       -10.15588        2.45767       -3.77508
C         -9.21577       -0.89461       -0.87682
C        -10.54246       -0.47645       -1.10040
Cl       -11.85406       -1.30603       -0.31359
C        -10.83230        0.59117       -1.93742
Cl       -12.46068        1.12350       -2.16316
C         -6.55600       -1.78080       -0.34246
C         -7.70071       -2.55192        0.06828
C         -8.95154       -2.09905       -0.11556
C         -5.29170       -2.18274        0.02360
C         -4.15491       -1.37268       -0.20370
H         -2.70516       -2.73899        0.60497
H         -0.29590       -2.30256        0.78500
H          2.58301       -2.39874        1.27634
H          4.99704       -1.79701        1.40274
H          4.17198        2.06504       -0.34435
H          7.67318        1.52120        0.43189
H          6.17559        2.41815        0.80192
H          6.43174        1.73287       -0.83234
H         -1.00452        2.25537       -1.23470
H         -3.42828        1.75273       -1.40857
H         -5.78152        1.29679       -1.58610
H         -7.52917       -3.48786        0.59244
H         -9.79447       -2.66370        0.25966
H         -5.16723       -3.12952        0.54416
