36
anti_C_O_2-CF3_diCl.log	Energy: -1318021.8511804
C         -2.81839        0.83388       -0.38431
C         -3.94489        0.28540        0.22123
C         -5.24966        0.81523       -0.02830
C         -6.32086        0.24191        0.58982
C         -7.74830        0.47457        0.60000
Cl        -8.58564        1.68810       -0.27343
C         -8.27719       -0.45016        1.42914
Cl        -9.88869       -0.73109        1.88455
C         -6.13587       -0.86916        1.47090
O         -7.34713       -1.27907        1.97545
C         -4.93185       -1.41983        1.75147
C         -3.78286       -0.84261        1.11915
C         -2.50741       -1.34491        1.35014
C         -1.37071       -0.79190        0.73939
C         -0.07485       -1.29913        0.97150
C          1.03780       -0.74547        0.36382
C          2.35834       -1.25791        0.59673
C          3.43483       -0.69808       -0.01075
C          4.82272       -1.22150        0.22184
F          4.84940       -2.26345        1.06615
F          5.39054       -1.62201       -0.93088
F          5.62247       -0.26755        0.73357
C          0.87907        0.37700       -0.52968
C          2.05334        0.93166       -1.14656
C          3.28350        0.41863       -0.90039
C         -0.38584        0.88336       -0.76557
C         -1.53014        0.32870       -0.15265
H         -2.93908        1.67944       -1.05745
H         -5.37151        1.65932       -0.70022
H         -4.83072       -2.26318        2.42568
H         -2.38430       -2.19039        2.02288
H          0.04699       -2.14483        1.64442
H          2.48009       -2.10173        1.26799
H          1.93416        1.77655       -1.81905
H          4.16483        0.84298       -1.36994
H         -0.50782        1.72906       -1.43848
