48
anti_C_O_m-CF3benz_benz.log	Energy: -934018.5232916
C         -2.94333       -1.08747        0.87483
C         -1.76434       -0.63301        0.28746
C         -0.49840       -0.81203        0.92921
C          0.63127       -0.35273        0.32107
C          2.04979       -0.34629        0.64546
C          2.81886       -0.80862        1.70995
C          4.19595       -0.61501        1.66795
C          2.67550        0.29510       -0.42919
C          4.04266        0.49902       -0.49329
C          4.79600        0.02984        0.58063
C          0.54223        0.30321       -0.95118
O          1.78149        0.68842       -1.39175
C         -0.62359        0.50434       -1.61148
C         -1.82762        0.03197       -0.99604
C         -3.06748        0.19878       -1.60814
C         -4.25189       -0.25868       -1.01619
C         -5.51438       -0.08942       -1.63795
C         -6.68398       -0.53575       -1.06348
C         -7.99967       -0.36710       -1.69567
C         -8.16825        0.26391       -2.94180
C         -9.41460        0.40867       -3.51409
C         -9.14960       -0.85511       -1.03621
C        -10.41389       -0.70102       -1.62838
C        -10.54866       -0.07822       -2.85159
C        -11.89879        0.11964       -3.48102
F        -11.90424       -0.27800       -4.76628
F        -12.86527       -0.56129       -2.84531
F        -12.25661        1.41701       -3.47761
C         -6.61269       -1.19908        0.21832
C         -7.82934       -1.67506        0.83771
C         -9.02738       -1.51365        0.24664
C         -5.39520       -1.37294        0.83828
C         -4.18801       -0.91817        0.25689
H         -2.89592       -1.58750        1.83971
H         -0.45839       -1.31230        1.89284
H          2.35376       -1.30901        2.55386
H          4.81380       -0.96765        2.48746
H          4.49653        0.99987       -1.34079
H          5.87262        0.16901        0.57112
H         -0.65468        1.00473       -2.57328
H         -3.11769        0.69832       -2.57301
H         -5.52539        0.41364       -2.59957
H         -7.30951        0.64933       -3.47933
H         -9.51780        0.89567       -4.47828
H        -11.28924       -1.08180       -1.11216
H         -7.75000       -2.17087        1.80139
H         -9.93397       -1.87623        0.72315
H         -5.35545       -1.87394        1.80303
