50
anti_O_NPh_diCF3_2-CF3.log	Energy: -1295218.0144943
C          0.73313        1.59321       -0.03229
C         -0.47158        0.88054       -0.02016
C         -1.72561        1.54927       -0.03582
C         -2.88528        0.81667       -0.02443
C         -4.28313        1.16473       -0.03498
C         -4.97823        0.00002       -0.01154
C         -6.46542       -0.15264       -0.02198
F         -7.05303        1.03513       -0.20961
F         -6.87595       -0.97628       -0.99798
F         -6.93039       -0.65197        1.13862
C         -2.82313       -0.62014        0.00369
N         -4.12632       -1.09791        0.01899
C         -4.47484       -2.47958       -0.01033
C         -5.06745       -3.07628        1.09910
C         -5.38672       -4.42972        1.05928
C         -5.09586       -5.18520       -0.07308
C         -4.48906       -4.58533       -1.17406
C         -4.18193       -3.22976       -1.14782
C         -1.64222       -1.30972        0.02372
C         -0.43078       -0.56484        0.01045
C          0.81427       -1.20134        0.02769
C          2.01540       -0.48979        0.01651
C          3.27021       -1.16741        0.03283
C          4.42149       -0.42821        0.02641
C          5.84347       -0.72233        0.03435
C          6.46121       -2.08130        0.10139
F          5.63639       -2.99680       -0.43816
F          7.62045       -2.14404       -0.56628
F          6.69893       -2.46020        1.36552
C          6.46882        0.47517        0.03433
C          7.92719        0.85074        0.01771
F          8.64715       -0.01122        0.74150
F          8.41222        0.85269       -1.22960
F          8.09754        2.07217        0.52813
C          4.34860        0.99558       -0.00442
O          5.61450        1.52553       -0.00408
C          3.19155        1.70227       -0.02575
C          1.97302        0.95638       -0.01489
H          0.69924        2.68005       -0.05532
H         -1.75045        2.63530       -0.05509
H         -4.71034        2.15560       -0.06301
H         -5.27658       -2.47916        1.97940
H         -5.85562       -4.89566        1.92018
H         -5.34122       -6.24240       -0.09789
H         -4.26263       -5.17125       -2.05934
H         -3.72047       -2.74314       -2.00138
H         -1.61532       -2.39460        0.05056
H          0.84858       -2.28812        0.05134
H          3.29398       -2.25116        0.05144
H          3.18257        2.78643       -0.04841
