34
anti_O_O_3-OMe_diCl.log	Energy: -1177033.1889339
C          0.16594        1.50985        0.56833
C         -0.94386        0.68403        0.37207
C         -2.27195        1.18358        0.52294
C         -3.32154        0.33408        0.31931
C         -4.76237        0.44701        0.37144
Cl        -5.65848        1.85859        0.75137
C         -5.25002       -0.77339        0.06259
Cl        -6.85299       -1.32492       -0.05548
C         -3.08531       -1.02715       -0.03746
O         -4.28017       -1.69159       -0.19083
C         -1.85071       -1.56348       -0.19630
C         -0.73052       -0.69902        0.00988
C          0.57720       -1.16390       -0.13203
C          1.68778       -0.33761        0.06406
C          3.01545       -0.83525       -0.08720
C          4.06366        0.01675        0.11645
C          5.50499       -0.10529        0.06044
O          6.11655       -1.26261       -0.25045
C          7.52779       -1.20198       -0.26130
C          6.01096        1.11047        0.36752
C          3.83488        1.37913        0.47401
O          5.01885        2.03506        0.62444
C          2.59387        1.91001        0.63246
C          1.47552        1.04575        0.42654
H          0.00347        2.55011        0.84082
H         -2.43295        2.22239        0.79493
H         -1.70909       -2.60374       -0.46843
H          0.73969       -2.20418       -0.40462
H          3.17858       -1.87342       -0.35945
H          7.91437       -0.92607        0.72888
H          7.88154       -0.47357       -1.00314
H          7.88127       -2.19791       -0.52818
H          7.01876        1.48551        0.44784
H          2.44843        2.94989        0.90474
