43
anti_C_O_diCF3_2-OMe.log	Energy: -1024522.7156948
C          0.83480        1.60699        1.34216
C         -0.26708        0.96073        0.79424
C         -1.59554        1.23381        1.25421
C         -2.65247        0.57781        0.69006
C         -4.08394        0.57670        0.87106
C         -4.56031       -0.32017       -0.02375
O         -5.81083       -0.68402       -0.25259
C         -6.04971       -1.66380       -1.26172
C         -2.40130       -0.37442       -0.35601
O         -3.59278       -0.91530       -0.78055
C         -1.18019       -0.68462       -0.84169
C         -0.05273       -0.00866       -0.26531
C          1.23810       -0.26543       -0.70302
C          2.35364        0.38858       -0.14864
C          3.66008        0.12094       -0.59980
C          4.77302        0.75824       -0.06199
C          6.13856        0.50708       -0.50105
C          6.29284       -0.51189       -1.61871
F          5.59981       -0.12400       -2.70786
F          7.54083       -0.73036       -2.02553
F          5.79946       -1.70721       -1.23862
C          7.18510        1.17326        0.08824
C          8.65427        0.98803       -0.27758
F          9.07284       -0.26881       -0.07832
F          8.91064        1.33012       -1.54705
F          9.44266        1.76901        0.48584
C          4.55142        1.71967        0.99207
C          5.67908        2.38413        1.56157
C          6.93569        2.12354        1.13243
C          3.26967        1.99075        1.44251
C          2.14323        1.34832        0.90029
H          0.68222        2.33436        2.13618
H         -1.74111        1.96117        2.04721
H         -4.67429        1.15576        1.56298
H         -7.12983       -1.80314       -1.27423
H         -5.55273       -2.60615       -1.01633
H         -5.70562       -1.31113       -2.23763
H         -1.04330       -1.41247       -1.63415
H          1.39621       -0.99190       -1.49676
H          3.76373       -0.60951       -1.39021
H          5.51173        3.10851        2.35369
H          7.77633        2.63634        1.57823
H          3.13266        2.71982        2.23771
