63
anti_NPh_NPh_2-CN_m-OMebenz.log	Energy: -1019474.2347917
C         -3.66712       -0.93919       -0.68000
C         -2.47725       -0.24075       -0.49289
C         -1.20870       -0.84036       -0.76598
C         -0.06302       -0.12836       -0.56991
C          1.34593       -0.42743       -0.75689
C          2.04271       -1.55713       -1.18500
C          3.42458       -1.52809       -1.23686
C          2.06411        0.72155       -0.38998
C          3.45653        0.77396       -0.42157
C          4.12668       -0.37073       -0.85340
O          5.47680       -0.46427       -0.93722
C          6.24616        0.65575       -0.56299
C         -0.12831        1.22893       -0.08263
N          1.17614        1.71787        0.01519
C          1.53481        3.01398        0.45487
C          1.12495        3.46188        1.71135
C          1.47163        4.73970        2.13671
C          2.24383        5.56534        1.32348
C          2.65947        5.11238        0.07414
C          2.29753        3.84414       -0.36765
C         -1.31085        1.85124        0.18084
C         -2.52660        1.12365       -0.01718
C         -3.76773        1.69803        0.23787
C         -4.97006        0.99867        0.05059
C         -6.22492        1.59901        0.32354
C         -7.38087        0.88145        0.12601
C         -8.77251        1.18326        0.31662
C         -9.47053        0.06731       -0.03835
C        -10.88464       -0.09997       -0.03757
N        -12.03826       -0.21665       -0.02209
C         -7.31294       -0.46982       -0.35944
N         -8.61283       -0.95093       -0.45366
C         -8.99627       -2.23776       -0.91393
C         -8.55864       -2.67948       -2.16261
C         -8.92392       -3.94360       -2.61095
C         -9.74086       -4.75618       -1.82878
C        -10.18452       -4.30467       -0.58924
C         -9.80423       -3.05132       -0.12166
C         -6.12240       -1.09427       -0.62321
C         -4.92002       -0.36482       -0.42443
H         -3.62423       -1.96579       -1.03768
H         -1.17663       -1.86257       -1.13413
H          1.50710       -2.45677       -1.47393
H          3.99711       -2.38780       -1.56624
H          3.98121        1.66886       -0.11209
H          7.28786        0.36655       -0.70633
H          6.08520        0.92112        0.48978
H          6.02212        1.52649       -1.19286
H          0.54175        2.80242        2.34641
H          1.14766        5.08566        3.11354
H          2.51960        6.55928        1.66186
H          3.25535        5.75406       -0.56780
H          2.59434        3.49125       -1.35054
H         -1.35192        2.87848        0.52938
H         -3.81095        2.72468        0.59538
H         -6.25995        2.62068        0.69199
H         -9.20430        2.10981        0.66523
H         -7.94443       -2.02719       -2.77527
H         -8.58129       -4.28726       -3.58204
H        -10.03294       -5.73868       -2.18610
H        -10.82155       -4.93319        0.02487
H        -10.13020       -2.70279        0.85291
H         -6.08080       -2.12181       -0.97036
