45
anti_C_S_tetClbenz_tetFbenz.log	Energy: -2327795.2028278
C         -2.78029       -1.63351        0.03422
C         -1.73445       -0.72234       -0.10658
C         -0.39287       -1.07470        0.22720
C          0.61626       -0.16390        0.08427
C          2.04023       -0.31310        0.36287
C          2.73263       -1.41937        0.84454
F          2.09526       -2.56000        1.12445
C          4.10429       -1.36243        1.04549
F          4.76066       -2.42357        1.50618
C          2.75957        0.86117        0.08503
C          4.12872        0.92391        0.28365
F          4.80636        2.04108        0.01812
C          4.80358       -0.18994        0.76494
F          6.11658       -0.14578        0.96064
C          0.32235        1.15827       -0.40589
S          1.76239        2.17632       -0.51559
C         -0.94247        1.53665       -0.73609
C         -2.01570        0.60385       -0.59572
C         -3.32685        0.94457       -0.92264
C         -4.37500        0.02633       -0.79077
C         -5.70544        0.36717       -1.14938
C         -6.75059       -0.52629       -1.05473
C         -8.14328       -0.21669       -1.44566
C         -8.52688        0.81283       -2.33817
Cl        -7.37411        1.62821       -3.35975
C         -9.86715        1.15666       -2.52122
Cl       -10.31143        2.45345       -3.57602
C         -9.17914       -1.02507       -0.90521
C        -10.52726       -0.66195       -1.09410
Cl       -11.78825       -1.60505       -0.35544
C        -10.87734        0.44095       -1.85960
Cl       -12.53143        0.90307       -2.04236
C         -6.47376       -1.80874       -0.44426
C         -7.57471       -2.66216       -0.07769
C         -8.84768       -2.26108       -0.22459
C         -5.18778       -2.16932       -0.11343
C         -4.09532       -1.28911       -0.29483
H         -2.56968       -2.63149        0.41131
H         -0.18793       -2.07369        0.59472
H         -1.15614        2.53531       -1.10556
H         -3.53991        1.94292       -1.29740
H         -5.86877        1.37946       -1.48782
H         -7.35192       -3.61994        0.38368
H         -9.65807       -2.89002        0.11870
H         -5.01049       -3.14028        0.34292
