34
anti_C_O_3-CN_2-Cl.log	Energy: -876001.9446915
C          1.07812        1.75520        0.16959
C         -0.03427        0.90412        0.05447
C         -1.36185        1.41186        0.11806
C         -2.41598        0.54320        0.00050
C         -3.85867        0.66373        0.01235
C         -4.31672       -0.59147       -0.15477
Cl        -5.91609       -1.18434       -0.23772
C         -2.15860       -0.84722       -0.18234
O         -3.34379       -1.53345       -0.27628
C         -0.91648       -1.39381       -0.25118
C          0.19147       -0.50619       -0.13118
C          1.51221       -0.97848       -0.19042
C          2.60459       -0.12980       -0.07590
C          3.95560       -0.63084       -0.13926
C          4.97228        0.24720       -0.02130
C          6.46507        0.11305       -0.03620
C          7.12688       -1.15414       -0.20225
N          7.63119       -2.18763       -0.33781
C          7.08190        1.39492       -0.59339
C          4.75791        1.65602        0.16434
C          6.13310        2.23461        0.24331
C          7.07928        1.20611        0.83682
C          3.51147        2.17113        0.22989
C          2.38117        1.28202        0.11009
H          0.90782        2.82054        0.30991
H         -1.52083        2.47709        0.25830
H         -4.45600        1.55484        0.12822
H         -0.76633       -2.45877       -0.39144
H          1.68213       -2.04359       -0.33073
H          4.12648       -1.69493       -0.27951
H          7.81922        1.58402       -1.35906
H          6.33256        3.29087        0.38316
H          7.81373        1.18961        1.62801
H          3.33337        3.23412        0.36995
