30
anti_S_O_3-F_diCl.log	Energy: -1370120.2597593
C          0.07061        1.54374        0.44845
C         -1.04909        0.72109        0.30421
C         -2.37065        1.25693        0.35850
C         -3.43035        0.40875        0.21123
C         -4.86930        0.55180        0.20426
Cl        -5.74711        2.01053        0.40433
C         -5.37233       -0.68594        0.00975
Cl        -6.98057       -1.22018       -0.10210
C         -3.21158       -0.98682        0.00730
O         -4.41319       -1.64232       -0.11410
C         -1.98423       -1.55863       -0.05399
C         -0.85310       -0.69689        0.09653
C          0.44764       -1.19860        0.04680
C          1.56670       -0.37329        0.19137
C          2.88904       -0.89424        0.13914
C          3.95680       -0.05092        0.28546
C          5.36837       -0.35558        0.26731
F          5.78597       -1.61097        0.08834
C          6.18053        0.69948        0.44009
C          3.75858        1.35496        0.49119
S          5.29666        2.20107        0.64718
C          2.50591        1.89300        0.54725
C          1.37241        1.04036        0.39838
H         -0.07751        2.60979        0.60463
H         -2.51888        2.32119        0.51440
H         -1.85617       -2.62412       -0.21041
H          0.59685       -2.26443       -0.10924
H          3.04497       -1.95763       -0.01645
H          7.26098        0.68936        0.45943
H          2.35247        2.95702        0.70301
