54
anti_C_NPh_diCF3_2-OMe.log	Energy: -1157005.1096610
C          0.78599        2.08466        0.73720
C         -0.31527        1.26738        0.50442
C         -1.64847        1.72681        0.73298
C         -2.70836        0.89640        0.49716
C         -4.13661        1.05076        0.61159
C         -4.68235       -0.13439        0.21738
O         -5.94611       -0.54827        0.13567
C         -6.92020        0.39499        0.54937
C         -2.46770       -0.44711        0.01674
N         -3.71021       -1.05648       -0.14775
C         -3.93651       -2.40076       -0.54164
C         -3.30490       -3.43462        0.14930
C         -3.50175       -4.75220       -0.24978
C         -4.34280       -5.04183       -1.32064
C         -4.98146       -4.00659       -1.99847
C         -4.77284       -2.68520       -1.61997
C         -1.22070       -0.93243       -0.23011
C         -0.09807       -0.08061        0.01320
C          1.20113       -0.51861       -0.21224
C          2.31453        0.30588        0.02312
C          3.62794       -0.14942       -0.20657
C          4.73988        0.65278        0.02172
C          6.11146        0.21668       -0.20217
C          6.27505       -1.21418       -0.68826
F          5.64621       -1.38858       -1.86760
F          7.53093       -1.61824       -0.86596
F          5.72071       -2.07495        0.18865
C          7.15545        1.07867        0.02875
C          8.62753        0.74318       -0.18507
F          9.04723       -0.24658        0.61461
F          8.89488        0.41086       -1.45520
F          9.40918        1.80447        0.09386
C          4.51201        1.99490        0.50511
C          5.63870        2.84022        0.73638
C          6.89963        2.40643        0.50622
C          3.22547        2.45232        0.73615
C          2.09875        1.64199        0.51011
H          0.62767        3.09610        1.10489
H         -1.80265        2.74133        1.09004
H         -4.66734        1.92976        0.94295
H         -7.88531       -0.09693        0.43342
H         -6.87977        1.29249       -0.07829
H         -6.76545        0.67358        1.59775
H         -2.66753       -3.19978        0.99596
H         -3.00480       -5.55453        0.28683
H         -4.50036       -6.07151       -1.62625
H         -5.63685       -4.22642       -2.83561
H         -5.25433       -1.87192       -2.15160
H         -1.06115       -1.93748       -0.60752
H          1.36430       -1.52871       -0.58127
H          3.73592       -1.16070       -0.57380
H          5.46649        3.84907        1.10100
H          7.73886        3.06417        0.68364
H          3.08356        3.46717        1.10068
