40
anti_C_O_m-CNbenz_C.log	Energy: -684048.7524399
C          1.08404        1.60655       -1.04235
C          0.13981        0.87773       -0.31640
C         -1.25973        1.06383       -0.52667
C         -2.14990        0.32886        0.20654
C         -3.59339        0.22970        0.28560
C         -3.84749       -0.69919        1.22523
C         -1.66534       -0.61198        1.16968
O         -2.71780       -1.23134        1.78299
C         -0.35029       -0.83762        1.41873
C          0.60019       -0.08192        0.66539
C          1.97225       -0.24915        0.85597
C          2.91366        0.48342        0.12613
C          4.30902        0.31435        0.31898
C          5.24284        1.03082       -0.39458
C          6.69086        0.86658       -0.20591
C          7.23701       -0.03887        0.72141
C          8.59971       -0.17782        0.88320
C          7.58061        1.64520       -0.98278
C          8.96423        1.50041       -0.81467
C          9.47635        0.59924        0.10788
C         10.89664        0.46125        0.26965
N         12.04281        0.34819        0.40196
C          4.77680        1.98792       -1.37358
C          5.74252        2.75077       -2.13344
C          7.06552        2.59097       -1.95088
C          3.42764        2.16678       -1.57570
C          2.45718        1.43538       -0.84766
H          0.74054        2.32800       -1.78038
H         -1.59498        1.78609       -1.26543
H         -4.32385        0.78217       -0.28645
H         -4.77288       -1.09661        1.61497
H         -0.02350       -1.56073        2.15820
H          2.31857       -0.96996        1.59330
H          4.61676       -0.41349        1.06292
H          6.58609       -0.65200        1.33372
H          8.99937       -0.88240        1.60439
H          9.64117        2.10141       -1.41440
H          5.36758        3.46354       -2.86288
H          7.77965        3.17083       -2.52872
H          3.09096        2.88998       -2.31520
