37
anti_C_C_3-F_3-CN.log	Energy: -651303.7337756
C         -2.56934        0.18575        1.65321
C         -3.78330       -0.11489        1.02974
C         -5.02674        0.13601        1.65757
C         -6.21967       -0.16430        1.03474
C         -7.50917        0.08009        1.65037
C         -7.55740        0.65855        2.96231
N         -7.57819        1.12689        4.02315
C         -8.67224       -0.22967        1.00544
C         -6.21191       -0.74821       -0.28812
C         -7.46546       -1.05411       -0.92016
C         -8.64868       -0.80611       -0.30101
C         -5.00579       -0.99819       -0.91264
C         -3.77123       -0.69816       -0.29222
C         -2.54592       -0.94800       -0.91672
C         -1.33193       -0.64747       -0.29318
C         -0.08834       -0.89812       -0.91960
C          1.09881       -0.59474       -0.28777
C          2.37665       -0.83708       -0.89650
F          2.36635       -1.37941       -2.12480
C          3.54934       -0.54556       -0.29065
C          1.09940       -0.01049        1.03600
C          2.36079        0.29051        1.65909
C          3.53082        0.03299        1.02108
C         -0.11000        0.23740        1.65431
C         -1.34331       -0.06394        1.02951
H         -2.57962        0.62469        2.64799
H         -5.03148        0.57498        2.65194
H         -9.62328       -0.03591        1.49032
H         -7.44494       -1.49257       -1.91424
H         -9.58799       -1.04200       -0.78971
H         -5.00020       -1.43723       -1.90762
H         -2.53643       -1.38681       -1.91172
H         -0.07378       -1.33588       -1.91248
H          4.48464       -0.75058       -0.79880
H          2.35486        0.72886        2.65265
H          4.47732        0.26355        1.49951
H         -0.12137        0.67629        2.64914
