45
anti_O_O_tetClbenz_m-CF3benz.log	Energy: -2086188.4147067
C         -3.45741        0.29871       -1.29688
C         -4.57504       -0.04351       -0.53090
C         -5.89686        0.27115       -0.96973
C         -6.96007       -0.08169       -0.19078
C         -8.40427        0.05951       -0.29147
C         -9.27891        0.61345       -1.22327
C        -10.64204        0.56087       -0.96791
C         -8.91733       -0.53076        0.86794
C        -10.27060       -0.59766        1.14715
C        -11.12580       -0.03781        0.20292
C        -12.61658       -0.08355        0.41181
F        -13.21376       -0.86328       -0.50670
F        -12.94839       -0.56202        1.62027
F        -13.16409        1.13889        0.29704
C         -6.74390       -0.75978        1.05128
O         -7.93406       -1.02475        1.67990
C         -5.51565       -1.08626        1.52321
C         -4.38386       -0.72725        0.72558
C         -3.08390       -1.02480        1.13617
C         -1.96639       -0.68220        0.37014
C         -0.64733       -0.99904        0.81539
C          0.42013       -0.64783        0.03842
C          1.86732       -0.78348        0.13067
C          2.75749       -1.32700        1.05016
Cl         2.14882       -2.06158        2.49452
C          4.13196       -1.27167        0.79309
Cl         5.24781       -1.94388        1.93068
C          2.36903       -0.19254       -1.03280
C          3.72189       -0.12053       -1.31985
Cl         4.24402        0.62819       -2.78270
C          4.60941       -0.67062       -0.38775
Cl         6.30579       -0.60552       -0.70093
C          0.20004        0.02834       -1.20312
O          1.39184        0.29492       -1.83639
C         -1.02386        0.35689       -1.68042
C         -2.15815        0.00051       -0.88563
H         -3.60585        0.81364       -2.24311
H         -6.03526        0.78608       -1.91622
H         -8.90546        1.07832       -2.12995
H        -11.34372        0.98756       -1.67654
H        -10.63961       -1.06009        2.05381
H         -5.38600       -1.60038        2.46925
H         -2.93451       -1.53958        2.08225
H         -0.51485       -1.51221        1.76108
H         -1.14633        0.87027       -2.62767
