36
anti_O_O_3-OMe_diCN.log	Energy: -715972.1541186
C          0.15120        1.52604        0.51754
C         -0.97162        0.70078        0.39678
C         -2.28755        1.22715        0.53462
C         -3.34985        0.37535        0.40700
C         -4.79061        0.52005        0.47730
C         -5.52022        1.71267        0.72265
N         -6.08247        2.70569        0.92541
C         -5.30189       -0.72367        0.25944
C         -6.65613       -1.15486        0.21901
N         -7.76504       -1.48848        0.18952
C         -3.13742       -1.00771        0.14185
O         -4.34404       -1.66115        0.05550
C         -1.91151       -1.57131       -0.00016
C         -0.78120       -0.70780        0.12761
C          0.51999       -1.19712       -0.00284
C          1.64102       -0.37247        0.11780
C          2.96077       -0.89597       -0.01978
C          4.02060       -0.04444        0.10765
C          5.45902       -0.18893        0.03723
O          6.04970       -1.37270       -0.20212
C          7.46213       -1.33475       -0.23785
C          5.98360        1.03891        0.25125
C          3.81367        1.34326        0.37353
O          5.00652        1.99181        0.45903
C          2.58236        1.89971        0.51460
C          1.45101        1.03655        0.38705
H          0.00433        2.58425        0.71985
H         -2.43280        2.28410        0.73674
H         -1.78599       -2.62928       -0.20184
H          0.66655       -2.25539       -0.20519
H          3.10811       -1.95223       -0.22182
H          7.86748       -0.99579        0.72469
H          7.81417       -0.66650       -1.03486
H          7.79647       -2.35246       -0.43847
H          6.99671        1.40616        0.28945
H          2.45323        2.95754        0.71632
