53
anti_C_NPh_3-CF3_tetClbenz.log	Energy: -2123666.1541951
C         -2.68713       -1.85517       -0.11308
C         -1.64896       -0.93069       -0.09034
C         -0.29779       -1.33878       -0.31801
C          0.70423       -0.41165       -0.29040
C          2.14874       -0.46082       -0.47449
C          3.03490       -1.49591       -0.74916
Cl         2.43994       -3.11333       -0.93759
C          4.40174       -1.23430       -0.87387
Cl         5.50641       -2.52161       -1.21838
C          2.63332        0.86038       -0.32071
C          3.99750        1.13586       -0.43823
Cl         4.61383        2.74446       -0.24199
C          4.87312        0.07921       -0.71706
Cl         6.56598        0.39769       -0.86980
C          0.38934        0.96808       -0.03090
N          1.56964        1.70901       -0.05354
C          1.56167        3.12330        0.14486
C          1.63920        3.63517        1.43660
C          1.59213        5.01149        1.63085
C          1.45776        5.86558        0.53894
C          1.36226        5.34482       -0.74935
C          1.40734        3.96941       -0.94933
C         -0.87809        1.41242        0.19082
C         -1.94531        0.46271        0.16705
C         -3.26508        0.84180        0.38534
C         -4.31689       -0.08883        0.36328
C         -5.65530        0.29868        0.58540
C         -6.69323       -0.61884        0.56393
C         -8.08073       -0.26893        0.78610
C         -8.45830        1.16252        1.05879
F         -8.10702        1.97551        0.04321
F         -9.77849        1.31648        1.24340
F         -7.84994        1.63984        2.16236
C         -9.05517       -1.21703        0.75201
C         -6.39136       -2.00941        0.30645
C         -7.46062       -2.96677        0.28229
C         -8.74535       -2.58797        0.49663
C         -5.08147       -2.39895        0.08741
C         -4.01989       -1.47355        0.10739
H         -2.46246       -2.90165       -0.30666
H         -0.09654       -2.38547       -0.51014
H          1.74686        2.95278        2.27369
H          1.66209        5.41685        2.63529
H          1.42373        6.93973        0.69269
H          1.25283        6.00999       -1.60004
H          1.33591        3.54392       -1.94526
H         -1.08658        2.45997        0.38232
H         -3.49224        1.88744        0.57895
H         -5.85207        1.34717        0.77588
H        -10.08712       -0.93254        0.92105
H         -7.21417       -4.00708        0.08713
H         -9.54930       -3.31629        0.47704
H         -4.86331       -3.44695       -0.10549
