58
anti_NPh_NPh_3-Cl_diCF3.log	Energy: -1504651.9660106
C          0.52018       -0.67400       -0.22741
C         -0.86187       -0.74457       -0.01779
C         -1.68706       -1.55698       -0.84074
C         -3.04062       -1.60498       -0.60929
C         -4.15164       -2.30610       -1.21911
C         -4.06837       -3.24193       -2.38212
F         -2.78700       -3.54643       -2.66099
F         -4.69919       -4.40456       -2.14619
F         -4.59623       -2.72263       -3.50269
C         -5.27952       -1.93091       -0.54425
C         -6.70710       -2.35155       -0.76545
F         -6.88067       -2.89373       -1.96996
F         -7.09489       -3.25571        0.15093
F         -7.53748       -1.30272       -0.67054
C         -3.59912       -0.82901        0.45987
N         -4.97117       -1.05345        0.47554
C         -5.85106       -0.47281        1.43804
C         -6.10278        0.89589        1.38578
C         -6.92721        1.47653        2.34275
C         -7.50150        0.69065        3.33921
C         -7.24378       -0.67652        3.38443
C         -6.40829       -1.26261        2.43911
C         -2.84743       -0.03988        1.28535
C         -1.44561        0.02093        1.06030
C         -0.60947        0.80773        1.85796
C          0.76919        0.87732        1.64734
C          1.60454        1.69240        2.46233
C          2.95054        1.72672        2.22274
C          4.05181        2.43917        2.81988
Cl         3.93338        3.52450        4.15726
C          5.18528        2.09852        2.16137
C          3.52711        0.94068        1.16143
N          4.89877        1.18592        1.15644
C          5.85728        0.63223        0.27597
C          5.88276       -0.74361        0.04231
C          6.83174       -1.27795       -0.82190
C          7.77037       -0.45252       -1.43561
C          7.75058        0.91711       -1.18761
C          6.79039        1.46414       -0.34340
C          2.76104        0.16183        0.34075
C          1.35506        0.10945        0.56998
H          0.95649       -1.25205       -1.03906
H         -1.23337       -2.12892       -1.64092
H         -5.65545        1.48968        0.59499
H         -7.12767        2.54259        2.30469
H         -8.14997        1.14511        4.08175
H         -7.68694       -1.28991        4.16249
H         -6.18958       -2.32425        2.46826
H         -3.29707        0.52852        2.09337
H         -1.04679        1.38547        2.66919
H          1.16703        2.28509        3.26064
H          6.20420        2.41024        2.34060
H          5.17214       -1.38698        0.55088
H          6.84665       -2.34842       -1.00229
H          8.51426       -0.87505       -2.10354
H          8.47571        1.56854       -1.66554
H          6.74925        2.53591       -0.17402
H          3.19174       -0.40467       -0.47846
