45
anti_O_NPh_2-OMe_3-F.log	Energy: -794993.0490799
C          0.45791        0.01260        1.82133
C          1.83214        0.12501        1.56784
C          2.77989        0.18182        2.62305
C          4.11287        0.28678        2.32256
C          5.30602        0.39399        3.11456
F          5.32867        0.37935        4.44952
C          6.37627        0.49266        2.29607
C          4.55957        0.33052        0.95593
N          5.94639        0.44627        0.96837
C          6.80202        0.53031       -0.15099
C          6.64808       -0.35173       -1.22269
C          7.49828       -0.26207       -2.31901
C          8.51890        0.68466       -2.34534
C          8.68035        1.55106       -1.26767
C          7.82005        1.48521       -0.17730
C          3.67339        0.30341       -0.08839
C          2.28442        0.19514        0.19866
C          1.33134        0.15418       -0.82740
C         -0.03534        0.04395       -0.57493
C         -0.98867        0.00302       -1.64073
C         -2.32034       -0.10778       -1.35146
C         -3.54367       -0.17888       -2.11650
C         -4.53499       -0.28283       -1.20197
O         -5.84237       -0.37766       -1.39595
C         -6.68011       -0.48019       -0.24752
C         -2.72681       -0.18037        0.02126
O         -4.09857       -0.28815        0.09034
C         -1.88475       -0.14705        1.07848
C         -0.48391       -0.03090        0.79829
H          0.11934       -0.04127        2.85390
H          2.44323        0.15063        3.65512
H          7.42712        0.55739        2.53425
H          5.87715       -1.11416       -1.18212
H          7.37163       -0.94993       -3.14954
H          9.18546        0.74578       -3.19979
H          9.47062        2.29554       -1.28022
H          7.92187        2.18229        0.64899
H          4.00218        0.37261       -1.12015
H          1.67091        0.20961       -1.85955
H         -0.63785        0.06085       -2.66705
H         -3.66913       -0.15629       -3.18726
H         -7.69473       -0.54817       -0.63830
H         -6.58245        0.40360        0.38893
H         -6.44156       -1.37577        0.33278
H         -2.24263       -0.20494        2.10103
