46
anti_S_O_diCF3_p-OMebenz.log	Energy: -1322200.2459152
C         -2.47016       -2.19247        0.68141
C         -1.51302       -1.22212        0.38960
C         -0.12538       -1.55486        0.29400
C          0.77793       -0.57620        0.00649
C          2.22207       -0.52621       -0.16756
C          3.24228       -1.46334       -0.10668
C          4.55371       -1.03818       -0.33628
O          5.50205       -2.00986       -0.26051
C          6.84589       -1.64792       -0.47927
C          2.51504        0.81217       -0.45360
C          3.80116        1.25239       -0.68337
C          4.82707        0.30712       -0.62172
C          0.33504        0.77343       -0.19748
O          1.38804        1.60108       -0.47386
C         -0.96397        1.15269       -0.12054
C         -1.93554        0.14475        0.18046
C         -3.29051        0.45128        0.27774
C         -4.25311       -0.52331        0.57124
C         -5.63083       -0.19537        0.66742
C         -6.55400       -1.17043        0.95639
C         -7.99614       -1.05709        1.10040
C         -8.66633        0.27607        0.92827
F         -8.42028        0.77012       -0.29840
F         -9.98991        0.23701        1.08800
F         -8.17732        1.16446        1.81206
C         -8.58792       -2.23942        1.38947
C        -10.05034       -2.54292        1.61361
F        -10.54649       -1.86482        2.65287
F        -10.78888       -2.25901        0.53655
F        -10.21113       -3.85190        1.87591
C         -6.11877       -2.52076        1.15980
S         -7.47018       -3.57973        1.51247
C         -4.80317       -2.87871        1.07656
C         -3.83122       -1.88386        0.77876
H         -2.14941       -3.21986        0.83804
H          0.18704       -2.58330        0.45219
H          3.05526       -2.50915        0.11227
H          7.42541       -2.56531       -0.37017
H          7.19207       -0.91300        0.25929
H          6.99678       -1.24442       -1.48915
H          4.00972        2.29308       -0.90376
H          5.84377        0.63630       -0.79996
H         -1.26727        2.18173       -0.27986
H         -3.61331        1.47782        0.12148
H         -5.93802        0.83283        0.50934
H         -4.48440       -3.90517        1.23270
