40
anti_C_O_diF_m-CNbenz.log	Energy: -808555.8698550
C         -2.85751       -1.76267       -0.13006
C         -1.79378       -0.87518       -0.02605
C         -0.44128       -1.31806       -0.18536
C          0.57263       -0.41594       -0.07607
C          2.02246       -0.47970       -0.17088
C          2.94839       -1.49054       -0.41118
C          4.29914       -1.16856       -0.42889
C          2.46735        0.83116        0.04657
C          3.80162        1.18537        0.03568
C          4.71762        0.15440       -0.20783
C          6.12188        0.45814       -0.23222
N          7.25543        0.69927       -0.25276
C          0.28154        0.96296        0.19626
O          1.43750        1.70142        0.26696
C         -0.97064        1.44831        0.35785
C         -2.06221        0.52332        0.24857
C         -3.37786        0.93913        0.40048
C         -4.45765        0.04438        0.29589
C         -5.79288        0.46718        0.45003
C         -6.84055       -0.43046        0.34317
C         -8.20388       -0.02312        0.49618
F         -8.45786        1.26631        0.74937
C         -9.22086       -0.91441        0.38917
F        -10.48830       -0.51425        0.53569
C         -6.58243       -1.82452        0.07019
C         -7.69278       -2.72931       -0.03419
C         -8.96874       -2.28999        0.11996
C         -5.27133       -2.24278       -0.08182
C         -4.19017       -1.34483        0.02318
H         -2.65530       -2.81140       -0.33590
H         -0.24714       -2.36704       -0.39092
H          2.62539       -2.51228       -0.58194
H          5.04378       -1.93462       -0.61331
H          4.12428        2.20531        0.20613
H         -1.15445        2.49720        0.56287
H         -3.58313        1.98680        0.60647
H         -6.00008        1.51234        0.65553
H         -7.49410       -3.77671       -0.23952
H         -9.82068       -2.95684        0.04509
H         -5.06722       -3.29101       -0.28758
