41
anti_C_O_tetFbenz_diCN.log	Energy: -990903.4469415
C         -2.84486        0.78204       -0.36688
C         -3.97452        0.29727        0.29813
C         -5.25051        0.90451        0.11519
C         -6.32192        0.39038        0.79031
C         -7.73272        0.71592        0.86812
C         -8.40775        1.76143        0.18550
N         -8.92433        2.62561       -0.38854
C         -8.27650       -0.18713        1.73057
C         -9.62137       -0.32803        2.17008
N        -10.72190       -0.42788        2.51724
C         -6.16005       -0.72884        1.65692
O         -7.36682       -1.06503        2.22100
C         -4.97546       -1.35258        1.87506
C         -3.83480       -0.84011        1.18453
C         -2.57472       -1.41884        1.34803
C         -1.44918       -0.92953        0.68024
C         -0.17057       -1.52411        0.85204
C          0.95004       -1.05476        0.20177
C          2.29171       -1.64293        0.35296
C          2.58770       -2.74319        1.17296
F          1.65180       -3.36363        1.90397
C          3.86574       -3.26406        1.28401
F          4.09114       -4.30796        2.07520
C          3.37515       -1.07720       -0.36854
C          4.65912       -1.61702       -0.24351
F          5.67572       -1.07995       -0.92578
C          4.91802       -2.70003        0.57086
F          6.14222       -3.20262        0.67999
C          0.80098        0.08393       -0.68338
C          1.95277        0.60459       -1.38401
C          3.17179        0.05952       -1.23924
C         -0.42997        0.67040       -0.86012
C         -1.58888        0.19718       -0.19723
H         -2.94867        1.63571       -1.03228
H         -5.35738        1.75695       -0.54877
H         -4.88861       -2.20288        2.54215
H         -2.46684       -2.27255        2.01259
H         -0.10746       -2.36985        1.52037
H          1.80686        1.45840       -2.03940
H          4.02918        0.45669       -1.76902
H         -0.52074        1.52344       -1.52836
