67
anti_NPh_NPh_diOMe_m-CNbenz.log	Energy: -1091312.6512880
C         -3.36940       -1.29313       -0.74916
C         -2.20876       -0.52572       -0.62575
C         -1.00503       -0.88369       -1.29959
C          0.11037       -0.10967       -1.15379
C          1.45496       -0.18954       -1.69798
C          2.08545       -1.09401       -2.54591
C          3.41965       -0.89950       -2.87595
C          2.16816        0.91541       -1.18588
C          3.50643        1.12115       -1.49348
C          4.11873        0.19848       -2.34819
C          5.50139        0.38190       -2.69321
N          6.61662        0.53034       -2.97366
C          0.07587        1.06296       -0.32119
N          1.33682        1.66530       -0.36142
C          1.71115        2.83883        0.33817
C          1.57239        2.89467        1.72525
C          1.93458        4.05032        2.40844
C          2.45429        5.14140        1.71640
C          2.59984        5.07861        0.33325
C          2.21830        3.93474       -0.36006
C         -1.05417        1.45390        0.33491
C         -2.23304        0.65898        0.19847
C         -3.42144        0.99826        0.84654
C         -4.58503        0.23082        0.72620
C         -5.78767        0.58748        1.39992
C         -6.90347       -0.19298        1.25290
C         -8.23664       -0.12025        1.79324
O         -8.69444        0.84695        2.64728
C         -8.27431        0.64859        3.98797
C         -8.93456       -1.18525        1.29276
O        -10.19328       -1.60397        1.42950
C        -11.09491       -0.74416        2.11539
C         -6.86534       -1.36025        0.41271
N         -8.12761       -1.94975        0.45262
C         -8.55596       -3.05279       -0.32878
C         -8.35225       -3.04042       -1.70889
C         -8.74558       -4.13214       -2.47538
C         -9.36147       -5.22600       -1.87370
C         -9.57543       -5.22767       -0.49773
C         -9.16486       -4.15018        0.27887
C         -5.73440       -1.74833       -0.24339
C         -4.55830       -0.95328       -0.10050
H         -3.34588       -2.18483       -1.37240
H         -0.99308       -1.77109       -1.92745
H          1.54256       -1.94570       -2.94401
H          3.93224       -1.58956       -3.53653
H          4.06592        1.95690       -1.08913
H          1.18673        2.03043        2.25695
H          1.82320        4.09212        3.48757
H          2.74514        6.03847        2.25394
H          2.99972        5.92761       -0.21245
H          2.30400        3.88597       -1.44130
H         -1.07800        2.34939        0.94794
H         -3.44529        1.89096        1.46798
H         -5.81132        1.47999        2.01904
H         -8.62869        1.50930        4.55911
H         -7.18174        0.58612        4.05889
H         -8.70634       -0.27204        4.40402
H        -12.07546       -1.20788        2.00677
H        -11.09518        0.25420        1.67107
H        -10.83568       -0.66855        3.17568
H         -7.89158       -2.17382       -2.17246
H         -8.58124       -4.12002       -3.54855
H         -9.67445       -6.07406       -2.47489
H        -10.05413       -6.07820       -0.02203
H         -9.31520       -4.15004        1.35261
H         -5.71043       -2.63913       -0.86332
