44
anti_S_NPh_3-F_2-CF3.log	Energy: -1137264.6631145
C          0.97803        1.63299        0.08577
C         -0.22296        0.91082        0.06480
C         -1.48087        1.56608        0.13682
C         -2.63552        0.82436        0.11555
C         -4.03567        1.15841        0.17139
C         -4.72194       -0.01016        0.10872
C         -6.20683       -0.17558        0.14286
F         -6.79932        0.99562        0.40611
F         -6.69534       -0.61619       -1.03232
F         -6.59151       -1.05335        1.08197
C         -2.56134       -0.60760        0.01999
N         -3.86066       -1.09735        0.00924
C         -4.19586       -2.48198       -0.01032
C         -3.85914       -3.27776        1.08334
C         -4.15408       -4.63607        1.06134
C         -4.79264       -5.19430       -0.04357
C         -5.12715       -4.39374       -1.13202
C         -4.82015       -3.03688       -1.12416
C         -1.37412       -1.28424       -0.05647
C         -0.16955       -0.53049       -0.03364
C          1.08243       -1.15466       -0.10593
C          2.27393       -0.43205       -0.08497
C          3.54432       -1.07680       -0.15876
C          4.70044       -0.34590       -0.13582
C          6.93530        0.21434       -0.14954
F          8.25673        0.13442       -0.18572
C          6.07131       -0.80994       -0.19934
C          4.62547        1.09277       -0.03595
S          6.23298        1.82278       -0.02363
C          3.43743        1.75209        0.03675
C          2.21880        1.00587        0.01432
H          0.93644        2.71760        0.16007
H         -1.51430        2.64995        0.20665
H         -4.47058        2.14295        0.25397
H         -3.37319       -2.82373        1.94125
H         -3.89336       -5.25700        1.91274
H         -5.02851       -6.25391       -0.05611
H         -5.62057       -4.82683       -1.99643
H         -5.06246       -2.40516       -1.97108
H         -1.33884       -2.36650       -0.13424
H          1.12460       -2.23904       -0.18122
H          3.58162       -2.16041       -0.23373
H          6.37131       -1.84675       -0.27710
H          3.39241        2.83492        0.11154
