50
anti_O_NPh_m-CF3benz_C.log	Energy: -968730.5588339
C         -2.70424       -2.29749        0.92437
C         -3.84250       -1.54908        0.59403
C         -5.15217       -2.06727        0.78204
C         -6.24305       -1.30682        0.44469
C         -7.66854       -1.51775        0.52825
C         -8.26223       -0.39472        0.05702
C         -6.05349        0.01022       -0.10777
N         -7.31776        0.54263       -0.34130
C         -7.61657        1.81439       -0.88091
C         -6.97340        2.25602       -2.03862
C         -7.27891        3.50660       -2.56363
C         -8.23894        4.31128       -1.95550
C         -8.88881        3.86125       -0.80967
C         -8.57314        2.62162       -0.26403
C         -4.81272        0.55855       -0.28695
C         -3.67306       -0.21870        0.06008
C         -2.37501        0.27884       -0.10432
C         -1.24512       -0.46757        0.22662
C          0.07138        0.06063        0.04988
C          1.14940       -0.70381        0.38566
C          2.59250       -0.52368        0.35281
C          3.45005        0.50060       -0.03839
C          4.82031        0.30313        0.07503
C          3.12850       -1.71851        0.84721
C          4.48754       -1.94132        0.97087
C          5.32693       -0.90317        0.57323
C          6.81708       -1.04890        0.72782
F          7.19128       -2.33216        0.85377
F          7.47652       -0.53833       -0.32673
F          7.26390       -0.39753        1.81707
C          0.95571       -2.02283        0.90976
O          2.16184       -2.62377        1.18340
C         -0.26277       -2.58185        1.10181
C         -1.41421       -1.80136        0.75788
H         -2.83566       -3.29990        1.32582
H         -5.27488       -3.06230        1.20137
H         -8.17158       -2.40396        0.88638
H         -9.31237       -0.16754       -0.06598
H         -6.25174        1.61082       -2.52905
H         -6.77450        3.84553       -3.46338
H         -8.47977        5.28383       -2.37296
H         -9.63527        4.48384       -0.32594
H         -9.05252        2.28119        0.64884
H         -4.67905        1.56394       -0.67328
H         -2.24390        1.28211       -0.50435
H          0.19210        1.06405       -0.34936
H          3.05884        1.43515       -0.42756
H          5.50796        1.08476       -0.22870
H          4.87429       -2.87762        1.35352
H         -0.37401       -3.58406        1.50152
