37
anti_S_S_2-CN_diCF3.log	Energy: -1414504.0458107
C          1.11454       -1.11979       -0.03658
C          2.25812       -0.31603       -0.01034
C          3.56032       -0.88447       -0.03889
C          4.66655       -0.07361       -0.01100
C          6.07372       -0.43917       -0.03129
C          6.47264       -1.88647       -0.09105
F          5.95909       -2.46761       -1.19006
F          7.79130       -2.07998       -0.11143
F          5.97960       -2.55151        0.96892
C          6.89330        0.63638        0.01013
C          8.40389        0.68343        0.00824
F          8.92131        0.04613        1.06202
F          8.91585        0.14568       -1.10223
F          8.82067        1.96011        0.06592
C          4.50254        1.35090        0.04703
S          6.05183        2.16946        0.07532
C          3.27115        1.93872        0.07495
C          2.10849        1.11671        0.04688
C          0.82447        1.66433        0.07393
C         -0.31835        0.86081        0.04769
C         -1.62397        1.42314        0.07592
C         -2.72795        0.60960        0.04993
C         -4.12073        0.98175        0.07171
C         -4.94885       -0.08896        0.03469
C         -6.37096       -0.04111        0.04422
N         -7.53009       -0.00565        0.05184
C         -2.56402       -0.81985       -0.00637
S         -4.11659       -1.64243       -0.03008
C         -1.33019       -1.40079       -0.03524
C         -0.16898       -0.57330       -0.00894
H          1.23028       -2.20007       -0.07946
H          3.66121       -1.96343       -0.08293
H          3.15908        3.01801        0.11847
H          0.71000        2.74486        0.11686
H         -1.73675        2.50306        0.11847
H         -4.47395        2.00498        0.11323
H         -1.21055       -2.47928       -0.07766
