33
anti_S_S_2-CF3_3-Cl.log	Energy: -1433595.7851665
C          1.33181       -1.18794        0.00632
C          2.47982       -0.39237        0.00133
C          3.78428       -0.96306        0.00396
C          4.89377       -0.15962       -0.00099
C          7.10710        0.52544       -0.00565
Cl         8.82853        0.48824       -0.00610
C          6.28897       -0.54267        0.00058
C          4.73417        1.27244       -0.00892
S          6.29529        2.08636       -0.01414
C          3.50549        1.86206       -0.01173
C          2.33737        1.04238       -0.00669
C          1.05746        1.59713       -0.00936
C         -0.09191        0.80102       -0.00444
C         -1.39432        1.37199       -0.00734
C         -2.50333        0.56630       -0.00235
C         -3.89881        0.94314       -0.00423
C         -4.72453       -0.12004        0.00226
C         -6.21974       -0.06630        0.00253
F         -6.65422        1.20145       -0.00693
F         -6.73540       -0.68438       -1.07157
F         -6.73447       -0.66792        1.08638
C         -2.34680       -0.86360        0.00596
S         -3.90682       -1.67548        0.01123
C         -1.11655       -1.45365        0.00890
C          0.04974       -0.63375        0.00371
H          1.43978       -2.27013        0.01242
H          3.88846       -2.04473        0.00998
H          6.63744       -1.56783        0.00615
H          3.39383        2.94241       -0.01774
H          0.94938        2.67936       -0.01546
H         -1.49965        2.45364       -0.01359
H         -4.24567        1.96896       -0.01020
H         -1.00463       -2.53392        0.01510
