47
anti_C_NPh_3-CF3_C.log	Energy: -873726.8125129
C          1.09734        1.97313        0.19813
C         -0.01257        1.13349        0.12983
C         -1.34081        1.65036        0.16860
C         -2.40792        0.79635        0.10264
C         -3.83953        0.98895        0.09368
C         -4.40228       -0.23845       -0.00661
C         -2.18337       -0.62733        0.00276
N         -3.43421       -1.23451       -0.05582
C         -3.70191       -2.61852       -0.16096
C         -3.05880       -3.52592        0.68285
C         -3.33426       -4.88431        0.57368
C         -4.26454       -5.34271       -0.35555
C         -4.91461       -4.43332       -1.18514
C         -4.62838       -3.07514       -1.09923
C         -0.93188       -1.17041       -0.05939
C          0.19348       -0.29643        0.00724
C          1.49586       -0.78913       -0.04285
C          2.61245        0.05563        0.02517
C          3.93062       -0.44932       -0.02430
C          5.03389        0.38375        0.04441
C          6.40325       -0.08704       -0.00142
C          6.68506       -1.55991       -0.12906
F          6.16506       -2.26145        0.89755
F          6.15585       -2.07702       -1.25545
F          8.00002       -1.82921       -0.15767
C          7.44554        0.78324        0.07016
C          4.82468        1.81031        0.16954
C          5.96393        2.68143        0.24067
C          7.22725        2.19023        0.19296
C          3.53787        2.31481        0.21862
C          2.40669        1.47560        0.15005
H          0.94400        3.04622        0.29046
H         -1.48906        2.72441        0.24179
H         -4.36600        1.92934        0.16491
H         -5.44629       -0.52032       -0.02239
H         -2.36080       -3.16104        1.42932
H         -2.82964       -5.58572        1.23108
H         -4.48180       -6.40338       -0.43242
H         -5.63757       -4.78224       -1.91616
H         -5.10713       -2.36606       -1.76785
H         -0.77306       -2.23851       -0.16691
H          1.65318       -1.86132       -0.13680
H          4.05608       -1.52165       -0.11906
H          8.46197        0.40915        0.03404
H          5.78772        3.74987        0.33417
H          8.08339        2.85466        0.24715
H          3.39118        3.38863        0.31266
