39
anti_S_O_m-CF3benz_3-F.log	Energy: -1101169.6945877
C         -3.71230        0.48128        0.97575
C         -4.72232       -0.31114        0.41694
C         -6.09677       -0.05348        0.68753
C         -7.04145       -0.85966        0.11455
C         -8.48047       -0.93842        0.12852
F         -9.28350       -0.11991        0.80205
C         -8.84880       -1.97154       -0.64988
C         -6.65644       -1.93758       -0.73759
O         -7.75923       -2.60314       -1.19409
C         -5.36253       -2.23097       -1.03150
C         -4.35245       -1.40802       -0.44899
C         -2.99646       -1.64056       -0.69934
C         -1.99482       -0.84755       -0.13975
C         -0.61425       -1.09129       -0.40031
C          0.34943       -0.30086        0.15910
C          1.79918       -0.38660        0.01594
C          2.54764       -1.30175       -0.72672
C          3.93033       -1.21797       -0.73279
C          2.46500        0.60830        0.74835
C          3.85230        0.70250        0.74932
C          4.57623       -0.21912        0.00322
C          6.07657       -0.12264       -0.06489
F          6.65170       -1.33616       -0.00514
F          6.47977        0.44193       -1.21726
F          6.58385        0.61428        0.93610
C         -0.03241        0.78744        1.01942
S          1.36862        1.67155        1.62875
C         -1.33747        1.05856        1.29695
C         -2.36264        0.24524        0.72294
H         -3.99242        1.30612        1.62693
H         -6.37613        0.76990        1.33746
H         -9.81475       -2.37372       -0.91014
H         -5.09912       -3.05730       -1.68297
H         -2.71529       -2.46522       -1.35037
H         -0.34431       -1.91797       -1.05257
H          2.04942       -2.08010       -1.29662
H          4.51693       -1.92963       -1.30353
H          4.36175        1.47100        1.31944
H         -1.61930        1.88180        1.94705
