55
anti_S_NPh_p-CNbenz_p-CNbenz.log	Energy: -1172076.0607087
C         -3.53306        1.16313       -0.01058
C         -4.57049        0.22703        0.00250
C         -5.93710        0.63466        0.00472
C         -6.92336       -0.30793        0.01969
C         -8.37566       -0.23428        0.01486
C         -9.26894        0.82505        0.00923
C        -10.63967        0.54734        0.02109
C        -11.58505        1.62618        0.01296
N        -12.34874        2.49897        0.00591
C         -8.85255       -1.56252        0.02762
C        -10.21701       -1.84851        0.05027
C        -11.10117       -0.78129        0.04500
C         -6.59004       -1.70716        0.03637
N         -7.77899       -2.44010        0.03997
C         -7.86944       -3.85607        0.05393
C         -7.29590       -4.57653        1.10114
C         -7.37800       -5.96479        1.10696
C         -8.04659       -6.63197        0.08360
C         -8.62540       -5.90764       -0.95517
C         -8.52920       -4.52022       -0.97944
C         -5.29935       -2.14815        0.02452
C         -4.25098       -1.18008        0.00946
C         -2.90732       -1.56243        0.00049
C         -1.87199       -0.62547       -0.01321
C         -0.50345       -1.02356       -0.02189
C          0.49255       -0.08796       -0.03467
C          1.93835       -0.28957       -0.04482
C          2.64214       -1.48962       -0.04360
C          4.03739       -1.46656       -0.05434
C          4.76780       -2.70291       -0.05278
N          5.35596       -3.70190       -0.05127
C          2.64700        0.92475       -0.05690
C          4.03997        0.95323       -0.06776
C          4.73304       -0.24681       -0.06640
C          0.15743        1.30954       -0.03955
S          1.59622        2.33435       -0.05647
C         -1.13536        1.73763       -0.03177
C         -2.19231        0.77758       -0.01833
H         -3.77930        2.22257       -0.01557
H         -6.17392        1.69519       -0.00975
H         -8.92149        1.85302       -0.00129
H        -10.57782       -2.87066        0.07613
H        -12.16975       -0.96722        0.06182
H         -6.79514       -4.04383        1.90362
H         -6.92888       -6.52531        1.92091
H         -8.11591       -7.71513        0.09544
H         -9.14274       -6.42368       -1.75791
H         -8.95572       -3.94652       -1.79661
H         -5.05692       -3.20609        0.02209
H         -2.66029       -2.62166        0.00399
H         -0.26869       -2.08496       -0.01827
H          2.11914       -2.44042       -0.03444
H          4.57786        1.89531       -0.07709
H          5.81754       -0.25094       -0.07466
H         -1.38246        2.79531       -0.03564
