46
anti_C_C_2-Cl_m-OMebenz.log	Energy: -987806.5151280
C         -2.20687        1.36579        0.48795
C         -3.42849        0.70563        0.58546
C         -4.65063        1.40800        0.78255
C         -5.86162        0.76852        0.88058
C         -7.13297        1.47872        1.08520
C         -7.21838        2.87117        1.20111
C         -8.42489        3.52531        1.39361
C         -8.33807        0.74109        1.17257
C         -9.55426        1.39994        1.36645
C         -9.61011        2.78324        1.47764
O        -10.84162        3.31960        1.66406
C        -10.94517        4.72060        1.78465
C         -5.88637       -0.67796        0.77679
C         -7.15446       -1.37062        0.87552
C         -8.30772       -0.70494        1.06098
C         -4.72118       -1.37889        0.58683
C         -3.46058       -0.73168        0.48447
C         -2.27343       -1.43224        0.29220
C         -1.03917       -0.77244        0.19335
C          0.17164       -1.47135       -0.00165
C          1.38321       -0.81038       -0.09801
C          2.61703       -1.51869       -0.29675
C          3.78404       -0.83438       -0.38645
Cl         5.29032       -1.68857       -0.62909
C          1.41658        0.62985        0.00265
C          2.68725        1.29225       -0.10084
C          3.83530        0.59363       -0.28868
C          0.23779        1.32706        0.19380
C         -1.00591        0.66696        0.29402
H         -2.17949        2.45065        0.56372
H         -4.58737        2.48938        0.85355
H         -6.32193        3.47906        1.14177
H         -8.43185        4.60585        1.47656
H        -10.47939        0.83539        1.43362
H        -12.00549        4.93184        1.92738
H        -10.59448        5.23066        0.87825
H        -10.38317        5.09368        2.65048
H         -7.14819       -2.45436        0.79443
H         -9.25017       -1.24103        1.13239
H         -4.75706       -2.46349        0.51121
H         -2.30119       -2.51697        0.21653
H          0.14532       -2.55599       -0.07734
H          2.60057       -2.60110       -0.37356
H          2.71487        2.37580       -0.02537
H          4.79380        1.09447       -0.36677
H          0.26398        2.41188        0.26952
