36
anti_C_O_3-F_2-CF3.log	Energy: -803496.2320594
C          1.04929        1.71245       -0.32002
C         -0.10978        0.96053       -0.14829
C         -1.40261        1.55346       -0.29040
C         -2.51350        0.77911       -0.11262
C         -3.94361        1.00222       -0.16818
C         -4.50389       -0.18777        0.10885
C         -5.94163       -0.58428        0.19892
F         -6.72216        0.47546       -0.04841
F         -6.24214       -1.54228       -0.68730
F         -6.24498       -1.05335        1.41600
C         -2.36829       -0.60829        0.21163
O         -3.60382       -1.18551        0.34358
C         -1.17631       -1.23491        0.36104
C          0.00582       -0.44771        0.18069
C          1.27209       -1.00717        0.31526
C          2.44071       -0.24939        0.14247
C          3.72516       -0.81716        0.27960
C          4.86275       -0.05242        0.10561
C          6.18248       -0.59841        0.23819
F          6.26922       -1.90358        0.54285
C          7.30569        0.13689        0.07136
C          4.76054        1.35046       -0.22191
C          5.96766        2.11161       -0.39450
C          7.18536        1.52662       -0.25312
C          3.50319        1.91125       -0.35756
C          2.32716        1.14988       -0.18434
H          0.96277        2.76827       -0.56659
H         -1.48045        2.60834       -0.53675
H         -4.46546        1.92211       -0.38381
H         -1.10910       -2.28888        0.60739
H          1.36196       -2.06245        0.56180
H          3.81717       -1.87013        0.52556
H          8.27780       -0.32939        0.18408
H          5.88345        3.16609       -0.64068
H          8.09164        2.10904       -0.38517
H          3.41360        2.96674       -0.60400
