33
anti_S_S_3-Cl_3-CF3.log	Energy: -1433600.7495633
C         -0.72213        1.18925        0.40443
C         -1.72589        0.21757        0.43434
C         -3.10215        0.57340        0.49215
C         -4.06478       -0.40105        0.52066
C         -5.51006       -0.27002        0.57929
C         -6.20671        1.04992        0.62049
F         -5.91576        1.79313       -0.46311
F         -7.53948        0.91316        0.67243
F         -5.82947        1.77117        1.69228
C         -6.15211       -1.45436        0.59298
C         -3.68045       -1.78603        0.49177
S         -5.09373       -2.83583        0.53748
C         -2.37331       -2.17134        0.43630
C         -1.35411       -1.17489        0.40596
C         -0.00140       -1.51561        0.34938
C          1.00230       -0.54407        0.31953
C          2.37925       -0.89838        0.26188
C          3.33729        0.07826        0.23379
C          4.78067       -0.04516        0.17572
Cl         5.56952       -1.58786        0.12912
C          5.43468        1.13042        0.16166
C          2.95733        1.46405        0.26247
S          4.36867        2.51561        0.21725
C          1.64916        1.84632        0.31772
C          0.63057        0.84891        0.34790
H         -1.00416        2.23931        0.42591
H         -3.37657        1.62331        0.51340
H         -7.22274       -1.60276        0.63404
H         -2.09085       -3.21984        0.41480
H          0.28029       -2.56578        0.32793
H          2.66224       -1.94692        0.24037
H          6.50566        1.27455        0.12091
H          1.36571        2.89462        0.33925
