43
anti_S_S_diCF3_m-CNbenz.log	Energy: -1510893.9272531
C         -2.48115       -1.91188       -0.13093
C         -1.50966       -0.93864        0.09865
C         -0.15025       -1.13486       -0.28523
C          0.78451       -0.16700       -0.04983
C          2.20900       -0.17809       -0.36413
C          2.95339       -1.18458       -0.98192
C          4.31012       -1.00830       -1.19674
C          2.84895        1.00794        0.03439
C          4.20794        1.20172       -0.17299
C          4.93447        0.18230       -0.79281
C          6.34230        0.35696       -1.01947
N          7.47829        0.49522       -1.20351
C          0.39489        1.06142        0.59121
S          1.75764        2.16353        0.79516
C         -0.89021        1.29390        0.97520
C         -1.88598        0.29642        0.73935
C         -3.21390        0.48758        1.11358
C         -4.19223       -0.48780        0.88424
C         -5.54332       -0.28241        1.26940
C         -6.48287       -1.25537        1.03347
C         -7.90362       -1.25445        1.34163
C         -8.52566       -0.06459        2.01569
F         -8.34084        1.04244        1.27417
F         -9.83514       -0.19237        2.22972
F         -7.93851        0.15951        3.20481
C         -8.52142       -2.39656        0.96098
C         -9.97473       -2.78600        1.10140
F        -10.35953       -2.81540        2.38037
F        -10.77921       -1.95007        0.43906
F        -10.16862       -4.01604        0.59495
C         -6.09256       -2.47900        0.39635
S         -7.45731       -3.56098        0.20426
C         -4.80451       -2.71678        0.00938
C         -3.81512       -1.72200        0.24438
H         -2.19498       -2.84306       -0.61433
H          0.12603       -2.06858       -0.76809
H          2.47261       -2.10605       -1.29513
H          4.89793       -1.78330       -1.67568
H          4.70385        2.11615        0.13372
H         -1.17829        2.22278        1.45850
H         -3.50119        1.41820        1.59699
H         -5.81670        0.65088        1.74957
H         -4.52048       -3.64745       -0.47284
