43
anti_C_O_2-Cl_m-OMebenz.log	Energy: -986426.1043300
C         -2.95490       -1.72747       -0.39252
C         -1.87629       -0.88623       -0.15227
C         -0.53385       -1.29585       -0.44349
C          0.49669       -0.44207       -0.19389
C          1.94094       -0.48720       -0.34696
C          2.86635       -1.42288       -0.81229
C          4.21146       -1.09946       -0.80695
C          2.40713        0.74603        0.10878
C          3.74470        1.10771        0.13024
C          4.65107        0.15429       -0.34041
O          5.98982        0.34687       -0.38748
C          6.50188        1.58124        0.06488
C          0.22828        0.85803        0.35761
O          1.39307        1.56263        0.53409
C         -1.01156        1.30830        0.65589
C         -2.11916        0.43071        0.40395
C         -3.42320        0.81596        0.68195
C         -4.51827       -0.03310        0.44009
C         -5.84355        0.35495        0.72098
C         -6.91395       -0.49032        0.47794
C         -8.26543       -0.09851        0.76233
C         -9.28654       -0.95496        0.50975
Cl       -10.93560       -0.48473        0.85283
C         -6.67224       -1.80037       -0.07571
C         -7.79784       -2.65788       -0.31884
C         -9.06469       -2.25797       -0.03912
C         -5.37413       -2.19223       -0.35543
C         -4.27715       -1.34125       -0.11266
H         -2.77368       -2.71553       -0.80990
H         -0.36157       -2.28437       -0.86000
H          2.54030       -2.39291       -1.17463
H          4.96000       -1.79964       -1.16044
H          4.04293        2.08137        0.49650
H          7.58341        1.52090       -0.05944
H          6.26720        1.74877        1.12368
H          6.11448        2.41811       -0.52991
H         -1.17501        2.29672        1.07152
H         -3.60703        1.80333        1.09924
H         -6.02545        1.34266        1.13835
H         -8.45614        0.88529        1.17890
H         -7.61769       -3.64493       -0.73583
H         -9.91430       -2.90600       -0.22310
H         -5.19172       -3.18002       -0.77296
