37
anti_O_O_diF_p-CNbenz.log	Energy: -807164.9351333
C         -2.93793       -1.79518        0.16705
C         -1.85990       -0.91031        0.11008
C         -0.51470       -1.38587        0.03455
C          0.50808       -0.48565       -0.01928
C          1.95881       -0.57257       -0.09956
C          2.87633       -1.61137       -0.15299
C          4.23618       -1.28963       -0.22692
C          5.21052       -2.34296       -0.28379
N          5.99662       -3.19394       -0.32994
C          2.41232        0.75390       -0.12066
C          3.75315        1.09455       -0.19351
C          4.66568        0.04907       -0.24674
C          0.22662        0.91727        0.00028
O          1.38852        1.65089       -0.06161
C         -1.02397        1.43287        0.07060
C         -2.11717        0.51018        0.12815
C         -3.43661        0.95395        0.20177
C         -4.51917        0.06949        0.25876
C         -5.86053        0.54791        0.33334
C         -6.88077       -0.35974        0.38679
C         -8.31813       -0.29353        0.46551
F         -9.05544        0.81203        0.50839
C         -8.75841       -1.56430        0.48647
F         -9.96778       -2.05435        0.55136
C         -6.59862       -1.76058        0.36795
O         -7.76783       -2.48513        0.43014
C         -5.34778       -2.27661        0.29821
C         -4.25999       -1.35112        0.24088
H         -2.74189       -2.86487        0.15346
H         -0.32819       -2.45607        0.02118
H          2.55945       -2.64872       -0.13859
H          4.07027        2.13053       -0.20799
H          5.72768        0.26141       -0.30452
H         -1.20091        2.50278        0.08330
H         -3.63276        2.02345        0.21533
H         -6.05512        1.61550        0.34654
H         -5.17076       -3.34660        0.28589
