60
anti_NPh_NPh_2-OMe_2-OMe.log	Energy: -937070.6953692
C          0.57157       -0.61221       -1.32642
C          1.85865       -0.14264       -1.04850
C          2.89793       -0.18632       -2.02330
C          4.14844        0.27770       -1.71409
C          5.38234        0.38551       -2.45532
C          6.28900        0.94889       -1.60982
O          7.57834        1.26262       -1.76591
C          8.12611        0.93765       -3.03018
C          4.40130        0.80776       -0.39774
N          5.73658        1.21873       -0.36446
C          6.42640        1.72670        0.76385
C          7.14222        2.92029        0.67397
C          7.81117        3.40880        1.79047
C          7.75172        2.72556        3.00231
C          7.02870        1.53919        3.09044
C          6.37510        1.03188        1.97276
C          3.43882        0.88550        0.56481
C          2.13082        0.40267        0.25978
C          1.10001        0.44580        1.20087
C         -0.18742       -0.02248        0.92249
C         -1.23041        0.03454        1.89259
C         -2.47846       -0.43811        1.58658
C         -3.72188       -0.51215        2.31589
C         -4.62881       -1.07500        1.47031
O         -5.91843       -1.38763        1.62620
C         -6.45312       -1.10742        2.90666
C         -2.72446       -0.99253        0.27896
N         -4.06748       -1.37651        0.23630
C         -4.71473       -2.03477       -0.83830
C         -4.14144       -3.18112       -1.38975
C         -4.75896       -3.81616       -2.46179
C         -5.95760       -3.32561       -2.97231
C         -6.53311       -2.18901       -2.41025
C         -5.91085       -1.53513       -1.35294
C         -1.76595       -1.05665       -0.68857
C         -0.45868       -0.57112       -0.38459
H          0.36548       -1.02364       -2.31275
H          2.68052       -0.58635       -3.01033
H          5.55162        0.08102       -3.47669
H          7.60682        1.48026       -3.82884
H          8.05519       -0.14018       -3.21659
H          9.17225        1.24079       -2.99468
H          7.17146        3.45484       -0.26887
H          8.37120        4.33601        1.71497
H          8.26689        3.11633        3.87445
H          6.98179        0.99687        4.02997
H          5.82618        0.09713        2.02687
H          3.64223        1.30680        1.54458
H          1.30539        0.85971        2.18631
H         -1.02070        0.46169        2.86987
H         -3.89732       -0.18563        3.32938
H         -7.49507       -1.42524        2.87669
H         -6.39588       -0.03445        3.12438
H         -5.91415       -1.66528        3.68113
H         -3.21782       -3.56867       -0.97176
H         -4.30623       -4.70525       -2.89023
H         -6.44159       -3.82699       -3.80483
H         -7.46672       -1.79942       -2.80478
H         -6.34524       -0.64089       -0.92027
H         -1.97484       -1.45882       -1.67521
