34
anti_S_O_diCl_3-OMe.log	Energy: -1379706.3986056
C         -0.67955        1.22020        0.18677
C         -1.73204        0.31654        0.36103
C         -3.08984        0.75217        0.35808
C         -4.08384       -0.17205        0.52660
C         -5.53462       -0.13673        0.59119
O         -6.33118        0.95699        0.49766
C         -6.38581        1.51204       -0.80929
C         -5.93981       -1.40490        0.80692
C         -3.75678       -1.54803        0.72230
O         -4.89303       -2.28499        0.89954
C         -2.48505       -2.02467        0.73704
C         -1.42664       -1.08451        0.54824
C         -0.09020       -1.49004        0.54577
C          0.95871       -0.58461        0.36944
C          2.31724       -1.00967        0.36845
C          3.32142       -0.09717        0.19389
C          4.75495       -0.31165        0.15974
Cl         5.45674       -1.87482        0.34945
C          5.45839        0.82377       -0.03270
Cl         7.16226        0.97405       -0.13072
C          3.00741        1.29306        0.01117
S          4.46328        2.26407       -0.19170
C          1.72078        1.74243        0.00550
C          0.65448        0.81166        0.18522
H         -0.90953        2.27424        0.04798
H         -3.31339        1.80777        0.23378
H         -7.01929        2.39766       -0.74243
H         -6.82308        0.79707       -1.51699
H         -5.38994        1.80112       -1.16623
H         -6.92448       -1.82831        0.93167
H         -2.27188       -3.07706        0.89112
H          0.14151       -2.54322        0.68630
H          2.54888       -2.06173        0.50733
H          1.48888        2.79456       -0.13268
