55
anti_C_NPh_m-CNbenz_2-OMe.log	Energy: -888376.6859757
C          0.97188        2.32522       -0.54702
C         -0.09117        1.43727       -0.37262
C         -1.44616        1.88025       -0.40784
C         -2.46483        0.98224       -0.23683
C         -3.90076        1.10125       -0.20527
C         -4.38373       -0.15398        0.01618
O         -5.62649       -0.62339        0.12634
C         -6.65311        0.34072       -0.03477
C         -2.15331       -0.41156       -0.02351
N         -3.36225       -1.08750        0.13148
C         -3.52242       -2.48798        0.29231
C         -4.25354       -2.99263        1.36660
C         -4.39921       -4.36737        1.51417
C         -3.80110       -5.23952        0.60830
C         -3.06445       -4.73111       -0.45797
C         -2.93211       -3.35688       -0.62523
C         -0.87666       -0.88485        0.03182
C          0.19781        0.03768       -0.14639
C          1.52742       -0.38175       -0.10611
C          2.58983        0.51171       -0.28020
C          3.94238        0.08715       -0.23973
C          4.99411        0.95920       -0.41099
C          6.39978        0.53438       -0.37172
C          6.78289       -0.80156       -0.15448
C          8.10874       -1.18034       -0.12158
C          7.41835        1.49886       -0.55865
C          8.76384        1.10892       -0.52436
C          9.11368       -0.21665       -0.30844
C         10.49664       -0.60174       -0.27611
N         11.61246       -0.91536       -0.24959
C          4.69961        2.35612       -0.63990
C          5.79005        3.28821       -0.82265
C          7.07351        2.88687       -0.78504
C          3.39347        2.78804       -0.68241
C          2.30346        1.90078       -0.50743
H          0.75799        3.37813       -0.71782
H         -1.65293        2.93507       -0.56676
H         -4.47780        2.00423       -0.33108
H         -7.59361       -0.19926        0.06903
H         -6.59457        0.80370       -1.02621
H         -6.57944        1.11589        0.73650
H         -4.70325       -2.30667        2.07580
H         -4.97323       -4.75822        2.34870
H         -3.90924       -6.31248        0.73301
H         -2.60036       -5.40496       -1.17156
H         -2.37774       -2.94993       -1.46505
H         -0.66250       -1.93374        0.21125
H          1.74412       -1.43403        0.06595
H          4.11928       -0.96959       -0.06562
H          6.03012       -1.56714       -0.00687
H          8.38122       -2.21647        0.04753
H          9.53998        1.85455       -0.66868
H          5.54288        4.33265       -0.99304
H          7.88266        3.59833       -0.92407
H          3.18664        3.84203       -0.85525
