36
anti_C_C_2-F_diCl.log	Energy: -1170221.1818498
C         -2.67552        0.67472       -0.73252
C         -3.79159        0.29048        0.01503
C         -5.09487        0.73543       -0.31250
C         -6.19757        0.35617        0.42507
C         -7.54409        0.79287        0.11713
Cl        -7.78987        1.84438       -1.24466
C         -8.59737        0.38765        0.87947
Cl       -10.22704        0.88753        0.54536
C         -6.01565       -0.52028        1.56461
C         -7.16493       -0.91339        2.33061
C         -8.40438       -0.48016        2.00522
C         -4.75025       -0.96064        1.89403
C         -3.60919       -0.58250        1.14966
C         -2.32445       -1.02384        1.47597
C         -1.20639       -0.64028        0.72876
C          0.09918       -1.08072        1.04930
C          1.19820       -0.69729        0.30595
C          2.52725       -1.14128        0.62634
C          3.56576       -0.73355       -0.13717
F          4.81335       -1.13675        0.14528
C          1.01399        0.17878       -0.83262
C          2.17028        0.56810       -1.59581
C          3.41013        0.13009       -1.26496
C         -0.25363        0.61753       -1.15864
C         -1.38913        0.23401       -0.40761
H         -2.81086        1.33260       -1.58785
H         -5.21405        1.39109       -1.16809
H         -7.02128       -1.57037        3.18329
H         -9.27480       -0.77423        2.58044
H         -4.62374       -1.61812        2.75095
H         -2.19056       -1.68157        2.33168
H          0.23412       -1.73832        1.90474
H          2.69546       -1.79775        1.47340
H          2.03010        1.22526       -2.44939
H          4.29188        0.41355       -1.82889
H         -0.38938        1.27547       -2.01405
