41
anti_S_NPh_2-Cl_2-F.log	Energy: -1214215.7527998
C          0.67539        0.32210       -1.92324
C          2.03206        0.36161       -1.58567
C          3.04519        0.41917       -2.58473
C          4.36455        0.45278       -2.21914
C          5.59995        0.52619       -2.96434
C          6.57892        0.54199       -2.03432
F          7.88632        0.59143       -2.20980
C          4.71328        0.42738       -0.81909
N          6.10589        0.48585       -0.73617
C          6.89359        0.42463        0.44168
C          7.87094        1.38980        0.67963
C          8.63999        1.31759        1.83575
C          8.42244        0.30222        2.76309
C          7.43907       -0.65404        2.52412
C          6.68071       -0.60357        1.35983
C          3.78052        0.38702        0.17544
C          2.40323        0.34933       -0.18995
C          1.39615        0.30140        0.77728
C          0.04209        0.26295        0.43729
C         -0.97835        0.21377        1.42911
C         -2.29916        0.17570        1.06711
C         -3.47052        0.12361        1.91559
C         -4.61144        0.09689        1.20343
Cl        -6.21004        0.03326        1.84443
C         -2.65257        0.18588       -0.32920
S         -4.40083        0.13133       -0.54292
C         -1.70970        0.23271       -1.31222
C         -0.32833        0.27282       -0.95554
H          0.39528        0.33090       -2.97442
H          2.75667        0.44118       -3.63198
H          5.73253        0.55948       -4.03423
H          8.02144        2.19038       -0.03650
H          9.40420        2.06697        2.01700
H          9.01834        0.25577        3.66918
H          7.26903       -1.45269        3.23951
H          5.92910       -1.35866        1.15264
H          4.06147        0.38942        1.22392
H          1.67547        0.29403        1.82873
H         -0.69580        0.20691        2.47869
H         -3.43617        0.10778        2.99783
H         -1.98484        0.24033       -2.36308
