34
anti_C_O_2-F_2-CN.log	Energy: -649751.3812792
C          0.79766        1.81637       -0.01879
C         -0.29545        0.97692       -0.01181
C         -1.60219        1.47924       -0.34529
C         -2.66934        0.63615       -0.33372
C         -4.08366        0.77170       -0.60225
C         -4.61265       -0.45615       -0.41313
C         -5.96287       -0.88857       -0.54241
N         -7.06966       -1.21336       -0.65522
C         -2.48787       -0.75105        0.01110
O         -3.69461       -1.40508       -0.04383
C         -1.30118       -1.30168        0.33575
C         -0.13805       -0.44610        0.33750
C          1.10226       -0.94658        0.65974
C          2.24473       -0.09964        0.66010
C          3.56722       -0.34382        0.93663
C          5.74735        0.95735        0.26714
C          7.86447        1.43712       -1.18876
C          7.86760        0.17918       -0.93956
F          8.54184       -0.92469       -0.74118
C          4.28842        0.91737        0.76579
C          5.59184        1.24634        1.50534
C          6.49477        0.72828       -0.97733
C          3.31500        1.93546        0.37487
C          2.08733        1.32174        0.31028
H          0.66931        2.86463       -0.27780
H         -1.71276        2.52902       -0.60158
H         -4.62552        1.65909       -0.89420
H         -1.20767       -2.35186        0.58986
H          1.20867       -1.99750        0.91660
H          4.02634       -1.28148        1.22390
H          8.30921        2.39557       -1.39151
H          5.92830        1.52593        2.48883
H          5.85276        0.54315       -1.83982
H          3.55319        2.97323        0.17748
