41
anti_S_O_diOMe_3-CF3.log	Energy: -1086212.6771900
C         -0.50884        1.17735        0.73534
C         -1.56090        0.26868        0.57695
C         -2.91896        0.70044        0.60625
C         -3.91013       -0.22717        0.44482
C         -5.35910       -0.19897        0.41187
C         -6.22965        0.99230        0.56258
F         -5.98269        1.90853       -0.39043
F         -7.53019        0.66496        0.48720
F         -6.02959        1.60423        1.74344
C         -5.76019       -1.46990        0.21492
C         -3.57797       -1.60009        0.25173
O         -4.72564       -2.34197        0.11356
C         -2.30708       -2.07543        0.21418
C         -1.25032       -1.12889        0.37979
C          0.08924       -1.52691        0.35526
C          1.13648       -0.61786        0.51506
C          2.50027       -1.03079        0.48960
C          3.50056       -0.11188        0.65236
C          4.93177       -0.33688        0.66928
O          5.46503       -1.59295        0.54360
C          5.50947       -2.30299        1.77404
C          5.64296        0.80847        0.82833
O          6.95639        1.04903        0.88877
C          7.83914        0.06906        0.35088
C          3.17888        1.27660        0.83410
S          4.63624        2.25550        0.97684
C          1.89092        1.71608        0.86571
C          0.82588        0.77624        0.70961
H         -0.74220        2.22957        0.88209
H         -3.14822        1.75109        0.75462
H         -6.74604       -1.90089        0.12616
H         -2.09282       -3.12809        0.06461
H          0.32321       -2.57859        0.20614
H          2.74195       -2.07788        0.32871
H          4.51532       -2.36630        2.23237
H          6.19610       -1.81985        2.48149
H          5.86982       -3.30689        1.54133
H          8.81096        0.55951        0.28854
H          7.50862       -0.24586       -0.64266
H          7.90703       -0.80516        1.00393
H          1.65319        2.76742        1.00160
