44
anti_O_NPh_diCN_2-CN.log	Energy: -834475.2161363
C          0.82748        1.54827        0.28868
C         -0.37988        0.84237        0.21641
C         -1.62972        1.50731        0.32098
C         -2.79240        0.78078        0.24732
C         -4.18307        1.13874        0.30097
C         -4.89089       -0.01763        0.16174
C         -6.30740       -0.16909        0.17095
N         -7.46211       -0.27024        0.17394
C         -2.73910       -0.64731        0.07001
N         -4.04311       -1.11514        0.02169
C         -4.43832       -2.47266       -0.12657
C         -3.97331       -3.42440        0.78035
C         -4.34825       -4.75467        0.63062
C         -5.20045       -5.12985       -0.40499
C         -5.67078       -4.17230       -1.29901
C         -5.28231       -2.84299       -1.17138
C         -1.55813       -1.32912       -0.04821
C         -0.34577       -0.59100        0.02572
C          0.89656       -1.22433       -0.08344
C          2.09919       -0.51979       -0.01210
C          3.35184       -1.19148       -0.12585
C          4.49909       -0.45370       -0.04788
C          5.91559       -0.75669       -0.11458
C          6.50937       -2.03292       -0.29660
N          6.95764       -3.09111       -0.44666
C          6.55951        0.43427        0.03364
C          7.95266        0.71834        0.04652
N          9.09116        0.93148        0.05462
C          4.43934        0.95792        0.14294
O          5.71074        1.48001        0.18964
C          3.28411        1.65751        0.25836
C          2.06417        0.91556        0.18133
H          0.79702        2.62566        0.43260
H         -1.65237        2.58526        0.45323
H         -4.60555        2.12378        0.43206
H         -3.33111       -3.11517        1.59907
H         -3.98548       -5.49655        1.33503
H         -5.49966       -6.16753       -0.51329
H         -6.33555       -4.45967       -2.10723
H         -5.62952       -2.09483       -1.87658
H         -1.53113       -2.40333       -0.19958
H          0.92687       -2.30150       -0.22879
H          3.38083       -2.26714       -0.27119
H          3.27546        2.73208        0.40290
