47
anti_S_NPh_tetClbenz_diCl.log	Energy: -2690291.8672286
C         -3.05997       -1.99248        1.59667
C         -4.14644       -1.24881        1.11609
C         -5.48309       -1.59193        1.45377
C         -6.51469       -0.83832        0.95902
C         -7.94507       -0.89826        1.10028
Cl        -8.81641       -2.06638        2.01090
C         -8.46973        0.12572        0.37569
Cl       -10.11729        0.51774        0.15110
C         -6.24838        0.28616        0.10561
N         -7.46642        0.86351       -0.23819
C         -7.62237        1.99859       -1.08160
C         -7.22774        1.91365       -2.41542
C         -7.34804        3.02838       -3.23823
C         -7.87552        4.21475       -2.73474
C         -8.27378        4.29046       -1.40257
C         -8.13825        3.18620       -0.56814
C         -4.97919        0.65910       -0.23831
C         -3.89277       -0.10999        0.26317
C         -2.56795        0.21369       -0.05304
C         -1.49230       -0.53019        0.42902
C         -0.14891       -0.18468        0.09500
C          0.90795       -0.91710        0.56847
C          2.35536       -0.75892        0.36456
C          3.08394        0.18462       -0.37201
Cl         2.27774        1.44731       -1.24795
C          4.48265        0.13224       -0.41979
Cl         5.36802        1.30358       -1.33400
C          3.08123       -1.75277        1.04906
C          4.46900       -1.81606        1.01031
Cl         5.27779       -3.07354        1.88303
C          5.17936       -0.87020        0.27255
Cl         6.90345       -0.93831        0.21552
C          0.62858       -2.05044        1.41648
S          2.08649       -2.88531        1.94013
C         -0.63516       -2.41685        1.76156
C         -1.74618       -1.66402        1.27623
H         -3.25232       -2.84942        2.23804
H         -5.67662       -2.44283        2.10024
H         -6.83346        0.97659       -2.79596
H         -7.03936        2.96552       -4.27695
H         -7.97567        5.08125       -3.38092
H         -8.68178        5.21516       -1.00691
H         -8.42710        3.23724        0.47665
H         -4.79118        1.51763       -0.87529
H         -2.37343        1.07095       -0.69354
H          0.00477        0.67367       -0.54380
H         -0.81635       -3.27522        2.40210
