44
anti_C_NPh_3-Cl_3-Cl.log	Energy: -1239065.8343730
C         -2.05673       -1.60676       -1.05997
C         -3.06903       -0.78586       -0.56675
C         -4.44149       -1.05362       -0.84193
C         -5.40231       -0.22443       -0.33610
C         -6.83995       -0.18644       -0.43518
Cl        -7.81383       -1.32807       -1.28808
C         -7.28510        0.88443        0.26378
C         -5.03914        0.90986        0.47771
N         -6.21676        1.56225        0.83425
C         -6.33424        2.73425        1.61791
C         -7.14134        3.78320        1.17698
C         -7.27921        4.92445        1.95953
C         -6.59764        5.03427        3.16836
C         -5.78630        3.98823        3.60026
C         -5.66082        2.83332        2.83635
C         -3.73696        1.21782        0.75064
C         -2.71316        0.36902        0.23450
C         -1.36679        0.62677        0.48515
C         -0.34851       -0.19841       -0.01161
C          1.01525        0.06439        0.24496
C          2.01589       -0.75259       -0.24613
C          3.42225       -0.52868       -0.01297
Cl         3.91647        0.85145        0.94519
C          4.37826       -1.35264       -0.51165
C          1.66223       -1.90854       -1.04472
C          2.70318       -2.75628       -1.55447
C          4.00817       -2.48897       -1.29824
C          0.32881       -2.17210       -1.29999
C         -0.70344       -1.34737       -0.80537
H         -2.32457       -2.47301       -1.66077
H         -4.71125       -1.90742       -1.45687
H         -8.29769        1.22011        0.43560
H         -7.64336        3.70697        0.21715
H         -7.91006        5.73724        1.61319
H         -6.69871        5.93077        3.77177
H         -5.25929        4.06216        4.54653
H         -5.05870        2.00078        3.18547
H         -3.46514        2.08927        1.33729
H         -1.09586        1.49317        1.08424
H          1.27272        0.93200        0.84366
H          5.42504       -1.15000       -0.31397
H          2.41922       -3.61841       -2.15145
H          4.79139       -3.13259       -1.68571
H          0.06519       -3.04035       -1.89981
