44
anti_S_NPh_3-CF3_3-Cl.log	Energy: -1363407.7365142
C          0.65407        0.48302        2.78085
C         -0.67610        0.26241        2.40652
C         -1.73677        0.36303        3.34771
C         -3.02331        0.14092        2.93663
C         -4.29774        0.13419        3.60829
Cl        -4.54868        0.47464        5.28170
C         -5.25463       -0.17078        2.69898
C         -3.30684       -0.18308        1.56264
N         -4.68289       -0.35995        1.44935
C         -5.40094       -0.70594        0.27992
C         -5.18764       -0.00368       -0.90707
C         -5.90086       -0.35004       -2.04926
C         -6.84188       -1.37565       -2.00850
C         -7.06188       -2.06301       -0.81811
C         -6.33650       -1.73969        0.32350
C         -2.31519       -0.30986        0.62918
C         -0.96945       -0.08437        1.03409
C          0.08840       -0.19189        0.12564
C          1.41413        0.02780        0.50237
C          2.48179       -0.08376       -0.43277
C          3.77317        0.13854       -0.03466
C          5.00166        0.08134       -0.80801
C          5.03343       -0.25515       -2.26188
F          4.30228        0.61385       -2.98466
F          6.28092       -0.24149       -2.75451
F          4.51798       -1.47621       -2.49652
C          6.10219        0.36106       -0.08300
C          4.04961        0.48569        1.33333
S          5.77762        0.71891        1.58985
C          3.05868        0.60338        2.26204
C          1.70545        0.37662        1.87116
H          0.87219        0.74424        3.81395
H         -1.51889        0.60602        4.38377
H         -6.32505       -0.24534        2.82596
H         -4.47945        0.81841       -0.92412
H         -5.73083        0.19730       -2.97130
H         -7.40194       -1.63734       -2.90062
H         -7.79043       -2.86691       -0.77893
H         -6.47961       -2.29497        1.24561
H         -2.52769       -0.58461       -0.39886
H         -0.12829       -0.45465       -0.90735
H          2.25763       -0.34646       -1.46189
H          7.12107        0.37867       -0.44571
H          3.27556        0.86591        3.29349
