34
anti_S_O_3-CF3_2-CN.log	Energy: -1000392.7282453
C          1.12872        1.72547        0.54133
C          0.04408        0.90033        0.22714
C         -1.29649        1.35255        0.39205
C         -2.32689        0.50909        0.07147
C         -3.76758        0.59751        0.09936
C         -4.21531       -0.59616       -0.35043
C         -5.54921       -1.05934       -0.52906
N         -6.64493       -1.41103       -0.66491
C         -2.04475       -0.80291       -0.42025
O         -3.21124       -1.46949       -0.67475
C         -0.79156       -1.29340       -0.60008
C          0.29981       -0.43303       -0.27293
C          1.62268       -0.85335       -0.42608
C          2.70369       -0.02648       -0.11133
C          4.04700       -0.46734       -0.27229
C          5.08732        0.36564        0.04458
C          6.51779        0.12892       -0.03953
C          7.10243       -1.15798       -0.52101
F          6.70963       -1.43553       -1.77783
F          8.44274       -1.13566       -0.51016
F          6.70580       -2.19302        0.24204
C          7.25630        1.18275        0.35925
C          4.81914        1.68826        0.54097
S          6.31592        2.55534        0.87234
C          3.54783        2.15118        0.71042
C          2.44889        1.30180        0.38704
H          0.93549        2.72756        0.91724
H         -1.48147        2.35451        0.76777
H         -4.38017        1.43083        0.41000
H         -0.61718       -2.29550       -0.97599
H          1.81786       -1.85482       -0.80179
H          4.23405       -1.46820       -0.64815
H          8.33641        1.23618        0.38298
H          3.35302        3.15154        1.08583
