35
anti_C_S_diCl_diCN.log	Energy: -1424974.0704362
C         -2.75246        0.68453        1.33253
C         -3.97362        0.18978        0.88135
C         -5.20773        0.68303        1.39240
C         -6.38954        0.17516        0.92707
C         -7.73983        0.53631        1.31201
C         -8.02054        1.53385        2.29044
N         -8.19555        2.35265        3.09197
C         -8.69018       -0.17560        0.64156
C        -10.09687       -0.04755        0.80067
N        -11.24620        0.04563        0.91972
C         -6.39511       -0.85493       -0.07590
S         -8.03538       -1.33148       -0.49977
C         -5.23919       -1.35662       -0.59299
C         -3.98810       -0.84696       -0.12781
C         -2.78050       -1.32681       -0.62530
C         -1.54904       -0.83023       -0.17278
C         -0.32364       -1.31699       -0.67783
C          0.88970       -0.82717       -0.23149
C          2.16266       -1.30381       -0.72813
Cl         2.17405       -2.54747       -1.94049
C          3.33060       -0.78574       -0.25307
Cl         4.87828       -1.32753       -0.82067
C          0.90320        0.20931        0.77763
C          2.16317        0.71661        1.23995
C          3.33027        0.24082        0.74699
C         -0.29111        0.69216        1.27798
C         -1.53601        0.20155        0.83160
H         -2.74228        1.46360        2.09086
H         -5.20336        1.46166        2.15049
H         -5.24507       -2.13457       -1.35043
H         -2.78846       -2.10579       -1.38369
H         -0.34857       -2.09391       -1.43391
H          2.16501        1.49446        1.99757
H          4.28518        0.62003        1.09230
H         -0.27306        1.47123        2.03618
