52
anti_O_NPh_m-CF3benz_diCN.log	Energy: -1084450.7381437
C         -3.08813       -1.92056        1.14306
C         -4.20205       -1.16122        0.75375
C         -5.52245       -1.59810        1.03041
C         -6.58032       -0.82289        0.62812
C         -8.01126       -0.96266        0.75874
C         -8.69999       -2.03656        1.37645
N         -9.22707       -2.93261        1.89117
C         -8.57583        0.14140        0.16440
C         -9.96088        0.43983        0.02774
N        -11.09027        0.67823       -0.07343
C         -6.35752        0.41021       -0.06547
N         -7.59981        0.97744       -0.33698
C         -7.82006        2.20411       -1.02705
C         -7.32087        2.35715       -2.31922
C         -7.52543        3.55669       -2.99136
C         -8.23920        4.58679       -2.38367
C         -8.74226        4.42094       -1.09649
C         -8.52506        3.23258       -0.40733
C         -5.10135        0.87712       -0.34364
C         -3.99094        0.09035        0.06332
C         -2.67591        0.50336       -0.19050
C         -1.57366       -0.25284        0.19863
C         -0.23975        0.18888       -0.07100
C          0.81099       -0.58190        0.32647
C          2.25913       -0.47558        0.23804
C          3.14848        0.45504       -0.29146
C          4.51123        0.20682       -0.18883
C          2.75557       -1.62886        0.85550
C          4.10593       -1.90128        0.97090
C          4.97786       -0.95672        0.43438
C          6.46404       -1.15683        0.57555
F          6.78281       -2.44590        0.77192
F          7.12578       -0.73814       -0.51627
F          6.95369       -0.46392        1.61893
C          0.57506       -1.82211        1.00712
O          1.75871       -2.44237        1.31904
C         -0.66000       -2.29698        1.29337
C         -1.78525       -1.50735        0.88772
H         -3.25271       -2.86186        1.66179
H         -5.68649       -2.53320        1.55812
H         -6.78732        1.53703       -2.78932
H         -7.13856        3.68011       -3.99785
H         -8.40553        5.51841       -2.91506
H         -9.29934        5.22110       -0.62021
H         -8.89802        3.10122        0.60331
H         -4.94304        1.82093       -0.85533
H         -2.51245        1.44580       -0.70820
H         -0.08652        1.13206       -0.58793
H          2.78795        1.35564       -0.77797
H          5.22372        0.91391       -0.59867
H          4.46231       -2.80479        1.44993
H         -0.80379       -3.23935        1.81046
