51
anti_O_NPh_C_m-OMebenz.log	Energy: -829131.4111045
C         -2.94200       -1.71072        0.12715
C         -1.87996       -0.80634        0.09428
C         -0.52329       -1.24938        0.05494
C          0.49023       -0.33678        0.02633
C          1.93737       -0.44865       -0.02755
C          2.82057       -1.52769       -0.04853
C          4.18356       -1.29420       -0.08256
C          2.45191        0.85736       -0.04587
C          3.82067        1.12071       -0.06800
C          4.67984        0.02217       -0.08805
O          6.03217        0.12593       -0.11259
C          6.60023        1.41546       -0.11464
C          0.19249        1.07364        0.03996
N          1.40094        1.77321       -0.00586
C          1.53290        3.18158       -0.01134
C          0.97015        3.93850        1.01718
C          1.09361        5.32357        1.00374
C          1.79462        5.95655       -0.01961
C          2.36327        5.19831       -1.03963
C          2.22459        3.81439       -1.04519
C         -1.08543        1.54765        0.06412
C         -2.16249        0.60889        0.09501
C         -3.49269        1.02635        0.12571
C         -4.56105        0.12231        0.15771
C         -5.91305        0.57352        0.18870
C         -6.92664       -0.34651        0.22004
C         -8.37446       -0.29200        0.25573
C         -8.79126       -1.57150        0.27442
C         -6.61346       -1.74040        0.22122
O         -7.76693       -2.47634        0.25481
C         -5.34865       -2.23508        0.19250
C         -4.27587       -1.29370        0.15932
H         -2.72473       -2.77679        0.12680
H         -0.31615       -2.31641        0.04303
H          2.44422       -2.54649       -0.03549
H          4.89744       -2.10995       -0.10137
H          4.18560        2.13989       -0.05987
H          7.68063        1.26833       -0.13790
H          6.33030        1.97610        0.78959
H          6.29382        1.98905       -0.99917
H          0.44425        3.43384        1.82158
H          0.65104        5.90872        1.80413
H          1.89605        7.03737       -0.02287
H          2.90447        5.68618       -1.84467
H          2.64150        3.21638       -1.84969
H         -1.30120        2.61155        0.05522
H         -3.70953        2.09257        0.12447
H         -6.11821        1.64045        0.18670
H         -9.00050        0.58798        0.26542
H         -9.77875       -2.00794        0.30179
H         -5.15113       -3.30186        0.19411
