51
anti_S_NPh_2-Cl_p-OMebenz.log	Energy: -1320193.2261117
C         -2.88260       -1.77554        0.14520
C         -1.83452       -0.85509        0.10633
C         -0.47290       -1.27964        0.05850
C          0.52591       -0.35254        0.02438
C          1.97572       -0.45540       -0.04056
C          2.84049       -1.53847       -0.06655
C          4.21606       -1.30473       -0.11101
O          5.00008       -2.41877       -0.13883
C          6.39619       -2.24460       -0.17330
C          2.47681        0.86001       -0.06270
C          3.84161        1.10008       -0.09353
C          4.70807        0.00650       -0.12034
C          0.21502        1.05513        0.04102
N          1.40984        1.76755       -0.01192
C          1.52847        3.17627       -0.02084
C          0.94384        3.93303        0.99588
C          1.05456        5.31911        0.97774
C          1.76528        5.95414       -0.03748
C          2.35707        5.19626       -1.04452
C          2.23138        3.81123       -1.04595
C         -1.07200        1.50995        0.07254
C         -2.13463        0.55717        0.10897
C         -3.47151        0.95687        0.14717
C         -4.52286        0.03513        0.18528
C         -5.88284        0.45229        0.22470
C         -6.89396       -0.47273        0.26294
C         -8.32329       -0.25061        0.30633
C         -9.01464       -1.40439        0.33650
Cl       -10.73015       -1.56141        0.39204
C         -6.57288       -1.87579        0.26282
S         -8.03163       -2.86260        0.31605
C         -5.28437       -2.32047        0.22528
C         -4.21975       -1.37293        0.18526
H         -2.65067       -2.83846        0.14340
H         -0.24964       -2.34330        0.04427
H          2.47932       -2.56161       -0.04921
H          6.82483       -3.24751       -0.19069
H          6.76064       -1.71282        0.71583
H          6.71506       -1.70143       -1.07303
H          4.23792        2.10985       -0.09037
H          5.77496        0.19502       -0.14547
H          0.41269        3.42801        1.79660
H          0.59512        5.90348        1.76916
H          1.85725        7.03577       -0.04399
H          2.90735        5.68514       -1.84272
H          2.66688        3.21454       -1.84148
H         -1.30307        2.57040        0.06487
H         -3.70402        2.01953        0.14734
H         -6.11042        1.51510        0.22418
H         -8.78563        0.72858        0.31381
H         -5.04928       -3.38104        0.22515
