42
anti_C_O_diCF3_3-CF3.log	Energy: -1164118.9778345
C         -2.82558        0.62464        1.21146
C         -3.97445       -0.05393        0.81865
C         -5.27486        0.45337        1.13069
C         -6.37054       -0.24929        0.72430
C         -7.80613       -0.08195        0.83861
C         -8.52025        1.03701        1.50157
F         -8.16811        1.14725        2.79453
F         -8.23310        2.21636        0.92330
F         -9.85115        0.86947        1.45121
C         -8.36298       -1.14010        0.21906
C         -6.21310       -1.47244       -0.00034
O         -7.44633       -1.99741       -0.29749
C         -5.01474       -2.01004       -0.32975
C         -3.84176       -1.29743        0.08117
C         -2.57090       -1.77696       -0.21333
C         -1.41040       -1.09223        0.18360
C         -0.12615       -1.58874       -0.11933
C          1.03164       -0.92520        0.26673
C          2.37511       -1.40797       -0.02744
C          2.44872       -2.71427       -0.80235
F          1.82639       -3.69841       -0.12366
F          1.82239       -2.59170       -1.98935
F          3.67569       -3.15487       -1.06582
C          3.46947       -0.69217        0.38946
C          4.92089       -1.09364        0.14166
F          5.21354       -1.15809       -1.16347
F          5.76654       -0.18922        0.67076
F          5.22672       -2.26666        0.71042
C          0.88680        0.31088        1.00023
C          2.06400        1.00956        1.40726
C          3.29570        0.53224        1.11660
C         -0.36885        0.80848        1.30310
C         -1.54307        0.13882        0.91410
H         -2.92247        1.55606        1.76414
H         -5.37186        1.38261        1.68297
H         -9.39621       -1.41465        0.06823
H         -4.93400       -2.94067       -0.88052
H         -2.46931       -2.70806       -0.76555
H         -0.07985       -2.51812       -0.66976
H          1.95391        1.93876        1.95900
H          4.17509        1.07518        1.43324
H         -0.44907        1.74105        1.85647
