44
anti_O_NPh_diCN_3-CN.log	Energy: -834479.7824412
C          0.49755       -0.81683        2.21771
C         -0.87415       -0.80533        1.94556
C         -1.82710       -1.16261        2.93981
C         -3.15894       -1.13478        2.62990
C         -4.36250       -1.44902        3.37475
C         -4.43104       -1.87563        4.72524
N         -4.45829       -2.22461        5.83181
C         -5.41879       -1.24636        2.53166
C         -3.59325       -0.74294        1.31797
N         -4.98745       -0.82009        1.30180
C         -5.83492       -0.53011        0.19953
C         -5.71451        0.68837       -0.46767
C         -6.55140        0.96513       -1.54298
C         -7.51643        0.04219       -1.93853
C         -7.63846       -1.16713       -1.25999
C         -6.79178       -1.46243       -0.19669
C         -2.71688       -0.40785        0.32565
C         -1.32434       -0.42957        0.62424
C         -0.37254       -0.09265       -0.34115
C          0.99775       -0.10472       -0.06978
C          1.94809        0.24450       -1.07254
C          3.27651        0.21675       -0.75233
C          4.50646        0.49465       -1.46802
C          4.63419        0.90713       -2.82017
N          4.69805        1.24312       -3.92762
C          5.51369        0.27917       -0.57671
C          6.91974        0.40301       -0.74824
N          8.06223        0.50949       -0.90698
C          3.69587       -0.15457        0.55789
O          5.06723       -0.10955        0.64289
C          2.84470       -0.49763        1.55633
C          1.44803       -0.47868        1.25443
H          0.83233       -1.09965        3.21271
H         -1.49107       -1.45952        3.92916
H         -6.47634       -1.35666        2.72736
H         -4.98058        1.41450       -0.13287
H         -6.45792        1.91311       -2.06329
H         -8.17224        0.26556       -2.77389
H         -8.38555       -1.89221       -1.56677
H         -6.85893       -2.41642        0.31761
H         -3.05243       -0.13726       -0.67020
H         -0.70776        0.18858       -1.33669
H          1.61273        0.52504       -2.06650
H          3.19874       -0.77540        2.54282
