40
anti_C_S_diF_p-CNbenz.log	Energy: -1011230.9576311
C         -2.85189       -1.64171       -0.05944
C         -1.83962       -0.69376        0.01395
C         -0.46306       -1.05742       -0.11124
C          0.51494       -0.11050       -0.03556
C          1.96210       -0.27727       -0.13783
C          2.68273       -1.45004       -0.33747
C          4.07558       -1.39566       -0.40656
C          4.82393       -2.60404       -0.61231
N          5.42691       -3.58017       -0.77836
C          2.65078        0.94142       -0.00930
C          4.04076        1.00131       -0.07758
C          4.75129       -0.17202       -0.27675
C          0.15800        1.27049        0.17244
S          1.58048        2.31582        0.23732
C         -1.13580        1.66799        0.29730
C         -2.18356        0.69462        0.22191
C         -3.51954        1.05173        0.34363
C         -4.54971        0.09760        0.27026
C         -5.90686        0.45594        0.39336
C         -6.90486       -0.49948        0.31846
C         -8.28925       -0.15831        0.44093
F         -8.61345        1.12587        0.63261
C         -9.25680       -1.10621        0.36610
F        -10.54481       -0.76728        0.48348
C         -6.57066       -1.88874        0.11162
C         -7.63073       -2.85487        0.03906
C         -8.92964       -2.47714        0.16206
C         -5.23794       -2.24382       -0.00992
C         -4.20607       -1.28680        0.06325
H         -2.59272       -2.68639       -0.21579
H         -0.21361       -2.10379       -0.26774
H          2.17533       -2.40383       -0.43964
H          4.56352        1.94657        0.02263
H          5.83414       -0.15141       -0.33350
H         -1.39637        2.71068        0.45358
H         -3.78018        2.09581        0.49999
H         -6.17071        1.49692        0.54922
H         -7.37529       -3.89848       -0.11664
H         -9.74431       -3.19107        0.11022
H         -4.97739       -3.28808       -0.16598
