51
anti_C_NPh_p-CNbenz_C.log	Energy: -816531.9231749
C          0.88143        2.35351       -0.69633
C         -0.13559        1.41672       -0.49042
C         -1.50690        1.76134       -0.65061
C         -2.47763        0.81784       -0.43799
C         -3.91806        0.83083       -0.53438
C         -4.34565       -0.41511       -0.21874
C         -2.10326       -0.51827       -0.04347
N         -3.27852       -1.24981        0.08918
C         -3.39469       -2.61044        0.45654
C         -2.71426       -3.09802        1.57361
C         -2.84025       -4.43651        1.92806
C         -3.65893       -5.28718        1.18974
C         -4.34735       -4.79353        0.08511
C         -4.20927       -3.46175       -0.29075
C         -0.79900       -0.90241        0.10305
C          0.22179        0.06552       -0.11523
C          1.57365       -0.26145        0.02565
C          2.58557        0.67811       -0.18189
C          3.95905        0.34724       -0.03718
C          4.96219        1.26594       -0.23796
C          6.38934        0.94149       -0.09129
C          6.83558       -0.33675        0.26927
C          8.19108       -0.61542        0.40086
C          8.60902       -1.93819        0.77299
N          8.94661       -3.00585        1.07379
C          7.35849        1.94711       -0.31872
C          8.72521        1.64686       -0.18130
C          9.15022        0.38548        0.17346
C          4.59780        2.61518       -0.61099
C          5.63970        3.59367       -0.82787
C          6.94201        3.28149       -0.69127
C          3.27341        2.95758       -0.75667
C          2.22967        2.02103       -0.55181
H          0.61380        3.36962       -0.97807
H         -1.76824        2.77281       -0.94980
H         -4.54140        1.67306       -0.79642
H         -5.35246       -0.80454       -0.15371
H         -2.10528       -2.42328        2.16648
H         -2.30735       -4.81124        2.79660
H         -3.76006       -6.32970        1.47431
H         -4.98387       -5.45087       -0.49925
H         -4.71699       -3.08029       -1.17153
H         -0.52573       -1.91837        0.36921
H          1.84385       -1.27737        0.30573
H          4.18921       -0.67608        0.24259
H          6.13017       -1.13807        0.45433
H          9.45456        2.43193       -0.36019
H         10.20553        0.15868        0.27846
H          5.34082        4.60038       -1.10782
H          7.71205        4.02940       -0.85838
H          3.01401        3.97608       -1.03756
