34
anti_S_O_2-OMe_3-Cl.log	Energy: -1091320.8161525
C          1.29270       -1.18775        0.06961
C          2.43842       -0.38542        0.04331
C          3.74300       -0.95900        0.06495
C          4.82835       -0.12909        0.03783
C          6.26434       -0.30069        0.04571
Cl         7.10481       -1.80302        0.09845
C          6.81170        0.92913        0.00404
C          4.65087        1.28576       -0.01135
O          5.86805        1.91473       -0.03134
C          3.43557        1.89134       -0.03405
C          2.28125        1.05072       -0.00662
C          0.99204        1.58958       -0.02706
C         -0.14997        0.78622       -0.00071
C         -1.46066        1.34395       -0.02176
C         -2.56722        0.53524        0.00502
C         -3.96268        0.89867       -0.01045
C         -4.78354       -0.17364        0.02650
O         -6.11941       -0.09797        0.02708
C         -6.87000       -1.30022        0.03137
C         -2.38477       -0.89403        0.05522
S         -3.93269       -1.73477        0.08325
C         -1.15366       -1.47403        0.07656
C          0.00886       -0.64510        0.04915
H          1.40963       -2.26863        0.10723
H          3.86014       -2.03807        0.10244
H          7.83971        1.25720       -0.00592
H          3.33620        2.97082       -0.07157
H          0.87442        2.67021       -0.06471
H         -1.57282        2.42426       -0.05948
H         -4.33092        1.91578       -0.04756
H         -7.91697       -0.99758        0.02793
H         -6.66491       -1.89067        0.93212
H         -6.66060       -1.90001       -0.86200
H         -1.03370       -2.55310        0.11426
