50
anti_C_O_m-OMebenz_p-CNbenz.log	Energy: -852280.2122482
C         -2.87451       -1.14485        0.77862
C         -1.68960       -0.71496        0.18271
C         -0.42410       -0.92600        0.81345
C          0.71013       -0.48965        0.19618
C          2.13163       -0.51634        0.50674
C          2.89501       -0.99933        1.55903
C          4.28350       -0.83383        1.50022
C          5.10086       -1.32330        2.57449
N          5.76022       -1.71886        3.44223
C          2.76282        0.11654       -0.57379
C          4.13503        0.29069       -0.65187
C          4.89274       -0.19556        0.40556
C          0.62469        0.17211       -1.07043
O          1.87532        0.53129       -1.52023
C         -0.53968        0.40364       -1.72147
C         -1.74904       -0.04378       -1.09718
C         -2.99025        0.15381       -1.69819
C         -4.17957       -0.27855       -1.09832
C         -5.44425       -0.07820       -1.70825
C         -6.61904       -0.49911       -1.12644
C         -7.93763       -0.29993       -1.74294
C         -8.11454        0.33656       -2.97800
C         -9.36556        0.51616       -3.54492
C         -9.09686       -0.76459       -1.07569
C        -10.35877       -0.58333       -1.64775
C        -10.50491        0.05138       -2.87373
O        -11.77319        0.17466       -3.33706
C        -11.96892        0.81420       -4.57848
C         -6.54939       -1.16918        0.15318
C         -7.77199       -1.62018        0.78294
C         -8.97184       -1.43042        0.20560
C         -5.33220       -1.37367        0.76187
C         -4.11877       -0.94431        0.17173
H         -2.83058       -1.64970        1.74117
H         -0.38734       -1.43097        1.77474
H          2.43842       -1.49372        2.40979
H          4.59118        0.78449       -1.50169
H          5.97153       -0.08469        0.39327
H         -0.56669        0.90862       -2.68093
H         -3.03699        0.65833       -2.66064
H         -5.45256        0.42859       -2.66814
H         -7.25662        0.70964       -3.52697
H         -9.44378        1.01578       -4.50344
H        -11.24858       -0.93907       -1.13712
H        -13.04514        0.80477       -4.75420
H        -11.46575        0.27725       -5.39281
H        -11.61593        1.85322       -4.55714
H         -7.69359       -2.12106        1.74423
H         -9.88031       -1.77520        0.69189
H         -5.29566       -1.87928        1.72442
