39
anti_O_O_3-CF3_benz.log	Energy: -836248.2426977
C         -2.74711       -1.60166       -0.65796
C         -1.64386       -0.86953       -0.21902
C         -0.33425       -1.12035       -0.73454
C          0.71705       -0.38204       -0.27800
C          2.14605       -0.34143       -0.54921
C          3.01039       -1.04291       -1.38553
C          4.36182       -0.71287       -1.37167
C          2.65389        0.66807        0.27595
C          3.99349        1.01387        0.30703
C          4.84317        0.30138       -0.53624
C          0.50140        0.63404        0.70957
O          1.67724        1.25953        1.03470
C         -0.71334        0.92068        1.23759
C         -1.83502        0.15995        0.77566
C         -3.11886        0.38955        1.26619
C         -4.22807       -0.34363        0.82785
C         -5.53109       -0.08975        1.34618
C         -6.58149       -0.83428        0.88531
C         -8.00604       -0.88740        1.14790
C         -8.76902       -0.03858        2.09523
F         -8.67534        1.26469        1.77715
F        -10.07229       -0.36320        2.10734
F         -8.30471       -0.16103        3.35143
C         -8.50280       -1.85923        0.35791
C         -6.36471       -1.84473       -0.09637
O         -7.55406       -2.45879       -0.40410
C         -5.15063       -2.13536       -0.62962
C         -4.03578       -1.37294       -0.16666
H         -2.60002       -2.37638       -1.40713
H         -0.19747       -1.89624       -1.48274
H          2.63741       -1.82996       -2.03390
H          5.05260       -1.24738       -2.01580
H          4.35496        1.80139        0.95842
H          5.90216        0.54036       -0.54341
H         -0.84174        1.69683        1.98427
H         -3.26632        1.16399        2.01530
H         -5.67338        0.68392        2.09413
H         -9.50811       -2.23244        0.23309
H         -5.02278       -2.91208       -1.37576
