49
anti_S_NPh_benz_diCN.log	Energy: -1075683.6594518
C         -3.16386       -2.05749        1.46998
C         -4.23440       -1.28184        0.99946
C         -5.57717       -1.61871        1.30649
C         -6.59102       -0.83158        0.82217
C         -8.02791       -0.88134        0.95390
C         -8.77585       -1.85145        1.66695
N         -9.35301       -2.66312        2.26172
C         -8.53047        0.18810        0.25057
C         -9.89706        0.54475        0.07412
N        -11.01188        0.83141       -0.05865
C         -6.29978        0.31409        0.01379
N         -7.50912        0.91794       -0.32164
C         -7.66063        2.08120       -1.12947
C         -7.14575        2.08256       -2.42462
C         -7.28304        3.22017       -3.21170
C         -7.94607        4.33965       -2.71465
C         -8.46546        4.32540       -1.42337
C         -8.31493        3.19995       -0.62027
C         -5.01944        0.68425       -0.29824
C         -3.95348       -0.11633        0.19192
C         -2.61738        0.20043       -0.09099
C         -1.56053       -0.57309        0.37985
C         -0.20204       -0.24406        0.08711
C          0.81917       -1.01702        0.55852
C          2.25744       -0.84863        0.37057
C          2.92966        0.14773       -0.33908
C          4.31636        0.13276       -0.40020
C          2.99923       -1.85224        1.01255
C          4.38943       -1.87430        0.95606
C          5.04080       -0.87349        0.24441
C          0.52314       -2.17783        1.36043
S          1.98726       -3.02543        1.85954
C         -0.75438       -2.53192        1.66632
C         -1.84143       -1.73722        1.18367
H         -3.37898       -2.93386        2.07681
H         -5.79242       -2.48786        1.92139
H         -6.65241        1.19453       -2.80703
H         -6.88352        3.22543       -4.22080
H         -8.05991        5.22267       -3.33540
H         -8.98300        5.19555       -1.03292
H         -8.70042        3.18677        0.39407
H         -4.80944        1.56391       -0.89803
H         -2.40212        1.07773       -0.69678
H          0.00192        0.63499       -0.51889
H          2.36914        0.93122       -0.84103
H          4.84070        0.90677       -0.95147
H          4.95430       -2.65472        1.45594
H          6.12511       -0.87651        0.19077
H         -0.97066       -3.40768        2.27127
