47
anti_C_O_3-OMe_m-OMebenz.log	Energy: -769878.1810070
C         -2.74180       -1.25848       -1.03953
C         -1.58239       -0.70083       -0.51403
C         -0.31445       -0.87427       -1.15923
C          0.79905       -0.31213       -0.61304
C          2.21071       -0.26411       -0.95548
C          3.00613       -0.77316       -1.98306
C          4.36483       -0.51112       -1.97633
C          2.81623        0.49452        0.04673
C          4.17216        0.77880        0.08878
C          4.94663        0.25794       -0.95066
O          6.28388        0.44188       -1.05882
C          6.93353        1.20277       -0.06462
C          0.69185        0.44759        0.60162
O          1.92037        0.92813        0.98661
C         -0.47088        0.65066        1.26190
C         -1.66224        0.07024        0.71058
C         -2.89656        0.23069        1.32607
C         -4.07067       -0.33238        0.79676
C         -5.32462       -0.16940        1.42242
C         -6.47149       -0.72871        0.89083
C         -7.76258       -0.56657        1.52649
O         -7.73091        0.16859        2.66351
C         -8.94530        0.37583        3.34753
C         -8.88255       -1.12682        0.98494
C         -6.40050       -1.49719       -0.32789
C         -7.60581       -2.06859       -0.86144
C         -8.78989       -1.88564       -0.22547
C         -5.17284       -1.66065       -0.94634
C         -3.99221       -1.09788       -0.41912
H         -2.68164       -1.83716       -1.95880
H         -0.26342       -1.45385       -2.07685
H          2.56957       -1.36765       -2.77970
H          5.01484       -0.88945       -2.75731
H          4.58164        1.37409        0.89443
H          7.98777        1.22206       -0.34240
H          6.82782        0.74238        0.92595
H          6.54875        2.22996       -0.03008
H         -0.51348        1.23057        2.17762
H         -2.96043        0.80862        2.24528
H         -5.38821        0.40693        2.33943
H         -9.66867        0.91304        2.72104
H         -8.70091        0.98170        4.22067
H         -9.38562       -0.57481        3.67422
H         -9.85286       -1.01103        1.45292
H         -7.54688       -2.64625       -1.77934
H         -9.69958       -2.31861       -0.63098
H         -5.11374       -2.23930       -1.86560
