52
anti_C_NPh_2-Cl_diOMe.log	Energy: -1094356.3692882
C         -2.33068       -1.23510        1.96971
C         -3.34080       -0.37114        1.55774
C         -4.65309       -0.43374        2.11710
C         -5.61818        0.42827        1.67763
C         -6.99870        0.63238        2.03832
O         -7.68667       -0.08266        2.98124
C         -8.05749       -1.37923        2.54005
C         -7.46334        1.67417        1.28381
O         -8.63955        2.29457        1.19566
C         -9.69805        1.80889        2.01151
C         -5.30929        1.40814        0.66512
N         -6.45866        2.16462        0.45070
C         -6.60146        3.21209       -0.49407
C         -6.26860        2.98298       -1.82917
C         -6.37734        4.01472       -2.75543
C         -6.83875        5.26672       -2.35891
C         -7.18325        5.48646       -1.02758
C         -7.05575        4.46730       -0.09090
C         -4.07035        1.51949        0.11082
C         -3.04568        0.61909        0.54026
C         -1.76356        0.67675        0.00444
C         -0.74347       -0.19490        0.41823
C          0.55784       -0.13913       -0.12341
C          1.55542       -1.00367        0.29336
C          2.88145       -0.94957       -0.25546
C          3.83117       -1.81398        0.18005
Cl         5.44920       -1.75334       -0.48380
C          1.26271       -1.98879        1.30716
C          2.31485       -2.87363        1.72288
C          3.55858       -2.79700        1.18447
C         -0.00999       -2.05366        1.84596
C         -1.03611       -1.17901        1.43051
H         -2.54958       -1.97737        2.73443
H         -4.86530       -1.15600        2.90046
H         -8.76878       -1.32263        1.70457
H         -8.52965       -1.87677        3.38964
H         -7.18352       -1.95701        2.21648
H        -10.53931        2.47501        1.82004
H         -9.42282        1.83509        3.06822
H         -9.96633        0.78540        1.73074
H         -5.93110        1.99713       -2.13327
H         -6.11247        3.83363       -3.79268
H         -6.93020        6.06874       -3.08481
H         -7.54184        6.46137       -0.71167
H         -7.30751        4.63460        0.95035
H         -3.84351        2.27492       -0.63478
H         -1.54154        1.42038       -0.75798
H          0.77781        0.60387       -0.88686
H          3.11007       -0.21174       -1.01792
H          2.09691       -3.61580        2.48613
H          4.35199       -3.46558        1.49955
H         -0.22984       -2.79613        2.61020
