39
anti_C_O_diCN_2-OMe.log	Energy: -717368.0972381
C          0.87909        1.79466        0.80716
C         -0.25959        1.07260        0.46588
C         -1.56662        1.53355        0.82289
C         -2.66106        0.79570        0.46945
C         -4.08770        0.91861        0.63857
C         -4.61779       -0.17448        0.04057
O         -5.88585       -0.52629       -0.07625
C         -6.18565       -1.74134       -0.76259
C         -2.46831       -0.42984       -0.25515
O         -3.68832       -1.01023       -0.50836
C         -1.26925       -0.92810       -0.62645
C         -0.10474       -0.17111       -0.26671
C          1.16748       -0.60783       -0.60728
C          2.31823        0.12220       -0.26230
C          3.60900       -0.32157       -0.60847
C          4.73571        0.40584       -0.26343
C          6.06870       -0.02773       -0.60693
C          6.23134       -1.25434       -1.33078
N          6.32121       -2.25090       -1.91602
C          7.16683        0.72026       -0.24795
C          8.49254        0.29153       -0.58841
N          9.57754       -0.02370       -0.84646
C          4.59112        1.64293        0.46491
C          5.76862        2.38280        0.81386
C          7.00856        1.94723        0.47570
C          3.32538        2.08518        0.80844
C          2.16863        1.35700        0.46485
H          0.76923        2.72706        1.35596
H         -1.66751        2.46549        1.37081
H         -4.64113        1.70185        1.13128
H         -7.27117       -1.82420       -0.73437
H         -5.73050       -2.59709       -0.25711
H         -5.83915       -1.69960       -1.79855
H         -1.17693       -1.85995       -1.17366
H          1.28192       -1.53957       -1.15600
H          3.71474       -1.25375       -1.15698
H          5.65025        3.31296        1.36223
H          7.89563        2.51041        0.74189
H          3.21791        3.01774        1.35730
