46
anti_S_O_benz_p-OMebenz.log	Energy: -995710.4799030
C         -3.55850        1.20325       -0.00433
C         -4.61125        0.28502       -0.00441
C         -5.97265        0.71760       -0.00536
C         -6.97036       -0.21217       -0.00540
C         -8.42512       -0.16308       -0.00619
C         -9.36494        0.85638       -0.00724
C        -10.72043        0.51562       -0.00777
O        -11.58453        1.56669       -0.00873
C        -12.96592        1.29265       -0.00987
C         -8.84109       -1.49993       -0.00571
C        -10.17269       -1.85727       -0.00623
C        -11.11756       -0.82877       -0.00727
C         -6.64840       -1.60829       -0.00450
O         -7.78165       -2.37651       -0.00470
C         -5.37721       -2.08154       -0.00357
C         -4.31135       -1.12721       -0.00350
C         -2.97503       -1.52985       -0.00256
C         -1.92357       -0.60946       -0.00247
C         -0.56146       -1.02804       -0.00149
C          0.45101       -0.10945       -0.00143
C          1.89351       -0.33589       -0.00049
C          2.58289       -1.54970        0.00056
C          3.97101       -1.55356        0.00135
C          2.62075        0.86475       -0.00074
C          4.01249        0.86914        0.00005
C          4.68074       -0.34965        0.00110
C          0.13609        1.29347       -0.00236
S          1.58833        2.29629       -0.00210
C         -1.15110        1.74024       -0.00331
C         -2.22297        0.79744       -0.00339
H         -3.78760        2.26667       -0.00502
H         -6.19290        1.78158       -0.00603
H         -9.08221        1.90363       -0.00764
H        -13.46477        2.26255       -0.01089
H        -13.26830        0.73306        0.88517
H        -13.26660        0.73203       -0.90482
H        -10.47684       -2.89779       -0.00585
H        -12.16839       -1.09265       -0.00767
H         -5.16617       -3.14548       -0.00289
H         -2.74483       -2.59292       -0.00187
H         -0.34284       -2.09294       -0.00080
H          2.03390       -2.48706        0.00076
H          4.50802       -2.49682        0.00217
H          4.56574        1.80300       -0.00014
H          5.76635       -0.36308        0.00172
H         -1.38169        2.80179       -0.00401
