50
anti_C_NPh_diCl_tetClbenz.log	Energy: -2489004.2361589
C         -2.80629       -1.75731       -0.06295
C         -1.75334       -0.84922       -0.03716
C         -0.39794       -1.29492       -0.12508
C          0.61841       -0.38342       -0.09788
C          2.07119       -0.46896       -0.16816
C          2.95357       -1.53636       -0.28884
Cl         2.34119       -3.15496       -0.38926
C          4.33097       -1.30573       -0.33039
Cl         5.43133       -2.63266       -0.48535
C          2.57032        0.85310       -0.08739
C          3.94502        1.09783       -0.11812
Cl         4.57840        2.70684        0.00570
C          4.81676        0.00912       -0.24341
Cl         6.52246        0.28882       -0.28849
C          0.31409        1.01770        0.02177
N          1.50763        1.73675        0.02932
C          1.51289        3.16446        0.06978
C          1.46972        3.81559        1.29880
C          1.43392        5.20552        1.33533
C          1.43260        5.93449        0.14863
C          1.45857        5.27496       -1.07792
C          1.49133        3.88548       -1.12052
C         -0.95720        1.49769        0.10554
C         -2.03879        0.56506        0.07867
C         -3.36339        0.98077        0.16145
C         -4.42915        0.06702        0.13579
C         -5.77290        0.49045        0.21989
C         -6.82174       -0.41128        0.19401
C         -8.20960       -0.01145        0.27773
Cl        -8.58554        1.67990        0.41782
C         -9.20479       -0.94287        0.24728
Cl       -10.88280       -0.50420        0.34469
C         -6.53376       -1.82351        0.07801
C         -7.62113       -2.75790        0.05110
C         -8.90604       -2.33889        0.13217
C         -5.21980       -2.24727       -0.00475
C         -4.14303       -1.33875        0.02047
H         -2.58949       -2.81954       -0.15026
H         -0.20491       -2.35688       -0.21387
H          1.47611        3.22919        2.21204
H          1.40960        5.71913        2.29122
H          1.40777        7.01938        0.17966
H          1.45291        5.84272       -2.00295
H          1.51217        3.35300       -2.06610
H         -1.15759        2.56070        0.19128
H         -3.58225        2.04231        0.24853
H         -5.97458        1.55245        0.30657
H         -7.39541       -3.81662       -0.03620
H         -9.73190       -3.04067        0.11223
H         -5.01015       -3.31088       -0.09181
