41
anti_C_O_diOMe_3-Cl.log	Energy: -961871.5896440
C         -2.78978        0.96806        0.99233
C         -4.00434        0.36293        0.68208
C         -5.24269        1.05479        0.86010
C         -6.40505        0.41750        0.54039
C         -7.81214        0.75290        0.57171
Cl        -8.48383        2.25062        1.09180
C         -8.48682       -0.32102        0.11998
C         -6.38140       -0.92089        0.03592
O         -7.65803       -1.35325       -0.21392
C         -5.24382       -1.63204       -0.15614
C         -4.00335       -0.99431        0.16884
C         -2.78925       -1.65210        0.00171
C         -1.56385       -1.04289        0.31451
C         -0.33242       -1.71022        0.14312
C          0.86714       -1.09638        0.45458
C          2.12609       -1.77748        0.28697
O          2.09029       -3.06034       -0.19462
C          2.44383       -4.04549        0.76956
C          3.30125       -1.14800        0.58909
O          4.52332       -1.75038        0.45938
C          4.87673       -2.12661       -0.86625
C          0.87121        0.25325        0.96887
C          2.13096        0.85995        1.29641
C          3.29342        0.18625        1.11000
C         -0.33161        0.91507        1.13802
C         -1.56492        0.30529        0.82405
H         -2.78958        1.98559        1.37681
H         -5.24362        2.07064        1.24405
H         -9.54230       -0.49819       -0.01880
H         -5.26143       -2.64592       -0.54112
H         -2.78611       -2.66902       -0.38386
H         -0.32169       -2.72224       -0.24878
H          3.48020       -3.91985        1.10051
H          2.32710       -5.01236        0.27667
H          1.77395       -3.99269        1.63623
H          5.89790       -2.50763       -0.81017
H          4.84816       -1.25638       -1.53310
H          4.20956       -2.90121       -1.25585
H          2.13549        1.87214        1.69068
H          4.25489        0.63030        1.34689
H         -0.33119        1.93238        1.52323
