42
anti_O_O_2-OMe_diOMe.log	Energy: -743943.1996620
C          1.03572       -1.04062        0.04368
C          2.21814       -0.29523        0.02688
C          3.49824       -0.92694        0.06862
C          4.62391       -0.15114        0.04566
C          6.04930       -0.39878        0.07475
O          6.65732       -1.62023        0.14241
C          6.61365       -2.33293       -1.08452
C          6.64487        0.82469        0.04243
O          7.89452        1.26512        0.06070
C          8.91904        0.28014        0.13058
C          4.50364        1.27007       -0.00411
O          5.74933        1.84814        0.00340
C          3.32220        1.93112       -0.04362
C          2.12638        1.14449       -0.03261
C          0.86592        1.74215       -0.07418
C         -0.31691        0.99697       -0.05902
C         -1.59608        1.63091       -0.10245
C         -2.72998        0.86476       -0.08453
C         -4.15225        1.11771       -0.11257
C         -4.73534       -0.10197       -0.06819
O         -6.02406       -0.41244       -0.07264
C         -6.37637       -1.79101        0.00278
C         -2.59882       -0.55911       -0.02226
O         -3.84879       -1.13728       -0.01339
C         -1.42149       -1.22568        0.02098
C         -0.22407       -0.44215        0.00284
H          1.10095       -2.12572        0.09055
H          3.56018       -2.00980        0.12877
H          7.06184       -3.31014       -0.89485
H          7.18499       -1.80934       -1.86294
H          5.58265       -2.46395       -1.43418
H          9.85350        0.83780        0.18685
H          8.91605       -0.34865       -0.76565
H          8.79714       -0.34887        1.01575
H          3.27427        3.01440       -0.07821
H          0.80078        2.82720       -0.11922
H         -1.64929        2.71483       -0.14883
H         -4.66602        2.06469       -0.15819
H         -7.46555       -1.80963       -0.01096
H         -6.00603       -2.24022        0.92851
H         -5.98179       -2.34405       -0.85410
H         -1.37579       -2.30865        0.06794
