41
anti_C_S_2-OMe_2-OMe.log	Energy: -876158.5274368
C          1.06635        1.61000       -0.48839
C         -0.05770        0.83408       -0.23223
C         -1.38085        1.33979       -0.41815
C         -2.47342        0.55824       -0.15995
C         -3.87511        0.87765       -0.28460
C         -4.68018       -0.14947        0.06133
O         -6.01760       -0.09837        0.03707
C         -6.74981       -1.26198        0.38066
C         -2.27036       -0.79430        0.30696
S         -3.80794       -1.61394        0.57498
C         -1.03428       -1.32436        0.50014
C          0.12266       -0.52319        0.23546
C          1.40630       -1.01948        0.41743
C          2.54775       -0.23875        0.15956
C          3.85287       -0.73544        0.34164
C          4.97289        0.04268        0.08453
C          6.30200       -0.45034        0.26579
C          7.38771        0.33484        0.00615
O          8.61262       -0.21994        0.20773
C          9.76254        0.55469       -0.04458
C          4.79081        1.39666       -0.38186
C          5.96011        2.18230       -0.64116
C          7.21099        1.68181       -0.45805
C          3.51178        1.89669       -0.56492
C          2.36914        1.11453       -0.30661
H          0.93707        2.63136       -0.84013
H         -1.50760        2.36036       -0.76979
H         -4.25774        1.83351       -0.61858
H         -7.80126       -0.99068        0.28714
H         -6.54382       -1.56814        1.41310
H         -6.52387       -2.08799       -0.30373
H         -0.90045       -2.34358        0.85159
H          1.53700       -2.04059        0.76929
H          3.98220       -1.75653        0.69336
H          6.45737       -1.46607        0.61599
H         10.61152       -0.09011        0.18638
H          9.80518        1.44389        0.59756
H          9.82489        0.86310       -1.09617
H          5.83143        3.20266       -0.99277
H          8.07149        2.30738       -0.66543
H          3.38225        2.91816       -0.91669
