52
anti_C_C_tetClbenz_m-OMebenz.log	Energy: -1949344.8047491
C         -2.18123        1.31916        0.61703
C         -3.41733        0.66984        0.67685
C         -4.63688        1.38578        0.80502
C         -5.85863        0.75702        0.86867
C         -7.12983        1.48209        1.00189
C         -7.20762        2.87833        1.07612
C         -8.41479        3.54612        1.20224
C         -8.34398        0.75615        1.06017
C         -9.56141        1.42955        1.18727
C         -9.60932        2.81542        1.25899
O        -10.84193        3.36634        1.38170
C        -10.93846        4.77111        1.45938
C         -5.89144       -0.68862        0.80124
C         -7.16684       -1.37026        0.86601
C         -8.32151       -0.69163        0.98777
C         -4.72273       -1.40274        0.67711
C         -3.45789       -0.76653        0.61140
C         -2.26460       -1.48206        0.48428
C         -1.03090       -0.83110        0.41484
C          0.18150       -1.55593        0.25905
C          1.40824       -0.93792        0.16134
C          2.68704       -1.65707       -0.02914
C          2.81365       -2.96259       -0.56059
Cl         1.49699       -3.75931       -1.37889
C          4.03396       -3.64059       -0.54708
Cl         4.15492       -5.25672       -1.15316
C          3.88715       -0.98281        0.32401
C          5.10972       -1.68206        0.33840
Cl         6.56110       -0.87573        0.85868
C          5.18664       -3.01116       -0.05304
Cl         6.68455       -3.86968        0.01588
C          1.44491        0.49704        0.35568
C          2.71859        1.14559        0.53486
C          3.85991        0.44098        0.59617
C          0.28357        1.22191        0.48185
C         -0.99000        0.60227        0.48974
H         -2.14541        2.40475        0.67524
H         -4.56787        2.46802        0.85180
H         -6.30455        3.47782        1.03556
H         -8.41590        4.62855        1.25522
H        -10.49338        0.87417        1.23217
H        -12.00180        4.99375        1.55391
H        -10.54801        5.25296        0.55386
H        -10.40815        5.16392        2.33634
H         -7.16592       -2.45570        0.81298
H         -9.27031       -1.21907        1.03494
H         -4.76394       -2.48860        0.62735
H         -2.29865       -2.56779        0.42895
H          0.09826       -2.63243        0.23874
H          2.73109        2.22143        0.68484
H          4.79698        0.94253        0.79723
H          0.34431        2.29798        0.62733
