38
anti_S_S_2-Cl_diOMe.log	Energy: -1365834.0728662
C          1.27385       -1.16983        0.21957
C          2.40707       -0.36712        0.07318
C          3.72381       -0.90697        0.14328
C          4.81132       -0.09090       -0.00897
C          6.21434       -0.45128        0.01566
O          6.62253       -1.74927        0.17767
C          6.62842       -2.48524       -1.03836
C          7.03543        0.61746       -0.14636
O          8.36708        0.72913       -0.17845
C          9.13646       -0.31640        0.40832
C          4.62831        1.31757       -0.22433
S          6.17544        2.15025       -0.34695
C          3.38908        1.87677       -0.29813
C          2.23553        1.04623       -0.15430
C          0.94575        1.57228       -0.22404
C         -0.18923        0.76819       -0.07922
C         -1.50304        1.30940       -0.15173
C         -2.59820        0.49830       -0.00540
C         -4.00046        0.85296       -0.04605
C         -4.79825       -0.21447        0.13855
Cl        -6.52114       -0.20660        0.15876
C         -2.41072       -0.91069        0.22301
S         -3.95631       -1.74058        0.37793
C         -1.17014       -1.47163        0.29966
C         -0.01843       -0.64383        0.14982
H          1.40193       -2.23595        0.39331
H          3.86016       -1.96884        0.32909
H          5.64398       -2.46320       -1.52082
H          6.88578       -3.51382       -0.77845
H          7.37464       -2.08378       -1.73643
H         10.15216        0.07456        0.47347
H          9.12368       -1.21572       -0.21316
H          8.75908       -0.56085        1.40513
H          3.25665        2.94296       -0.45934
H          0.81767        2.63883       -0.39555
H         -1.62757        2.37521       -0.32450
H         -4.36817        1.85884       -0.20602
H         -1.03797       -2.53581        0.47269
