46
anti_C_NPh_diCN_diCl.log	Energy: -1354782.4953689
C         -2.12453       -1.43118        2.08333
C         -3.16413       -0.59763        1.67523
C         -4.47119       -0.72083        2.22977
C         -5.46254        0.11574        1.79947
C         -6.85278        0.26567        2.14026
Cl        -7.71258       -0.68230        3.28640
C         -7.35043        1.27942        1.38375
Cl        -8.95101        1.87197        1.34441
C         -5.19182        1.11181        0.79429
N         -6.36849        1.81366        0.55899
C         -6.50910        2.88157       -0.37158
C         -6.34820        2.62357       -1.73143
C         -6.45188        3.66817       -2.64370
C         -6.73149        4.95809       -2.19971
C         -6.89749        5.20705       -0.83972
C         -6.77581        4.17162        0.08062
C         -3.95652        1.27541        0.23916
C         -2.90374        0.41455        0.66862
C         -1.62039        0.52555        0.13827
C         -0.57537       -0.31319        0.54904
C          0.72375       -0.19954        0.00941
C          1.74785       -1.03206        0.42104
C          3.08488       -0.93457       -0.11772
C          3.35681        0.05939       -1.11399
N          3.53551        0.87550       -1.91755
C          4.08092       -1.77881        0.31476
C          5.40885       -1.68372       -0.21907
N          6.49219       -1.63573       -0.62789
C          1.49278       -2.04063        1.42309
C          2.56892       -2.89412        1.83731
C          3.81339       -2.77541        1.31110
C          0.22361       -2.16002        1.95763
C         -0.83416       -1.31964        1.54934
H         -2.32014       -2.18946        2.83785
H         -4.66706       -1.47311        2.98803
H         -6.14589        1.60953       -2.06186
H         -6.32427        3.47108       -3.70339
H         -6.81918        5.77044       -2.91432
H         -7.11178        6.21240       -0.49138
H         -6.88403        4.35500        1.14474
H         -3.76491        2.03687       -0.51004
H         -1.42135        1.28340       -0.61556
H          0.91381        0.56012       -0.74404
H          2.36746       -3.64932        2.59161
H          4.62338       -3.42257        1.62725
H          0.03186       -2.91946        2.71190
