53
anti_C_C_p-OMebenz_m-CNbenz.log	Energy: -853661.8621955
C         -1.97073        1.28492        0.25595
C         -3.12496        0.62780        0.68788
C         -4.39603        1.26090        0.67993
C         -5.53908        0.62312        1.10262
C         -6.86084        1.26607        1.09975
C         -7.05997        2.58833        0.66453
C         -8.30936        3.17310        0.66962
C         -7.98465        0.53473        1.55084
C         -9.25158        1.13300        1.55394
C         -9.42010        2.43999        1.11865
C        -10.72457        3.04049        1.12742
N        -11.77662        3.52740        1.13353
C         -5.43446       -0.74228        1.57079
C         -6.62554       -1.43026        2.01841
C         -7.82919       -0.83029        2.00965
C         -4.21322       -1.37451        1.58742
C         -3.02748       -0.72943        1.15494
C         -1.78202       -1.36111        1.16688
C         -0.62687       -0.70407        0.73481
C          0.64389       -1.33630        0.74242
C          1.78872       -0.70060        0.31969
C          3.11113       -1.34550        0.32279
C          3.29622       -2.67007        0.76168
C          4.55400       -3.25233        0.75391
O          4.81892       -4.51916        1.15874
C          3.74715       -5.30798        1.62303
C          4.22861       -0.61441       -0.12794
C          5.49597       -1.22770       -0.12630
C          5.66692       -2.52142        0.30432
C          1.68354        0.66583       -0.14900
C          2.87248        1.35514       -0.59739
C          4.07356        0.74775       -0.58604
C          0.46048        1.29724       -0.16472
C         -0.72439        0.65295        0.26772
H         -2.04201        2.31116       -0.09763
H         -4.43059        2.28455        0.32110
H         -6.22239        3.17925        0.31266
H         -8.44022        4.19463        0.32955
H        -10.10984        0.56568        1.90133
H         -6.52126       -2.45474        2.36516
H         -8.71550       -1.35922        2.34849
H         -4.14953       -2.40088        1.94197
H         -1.71067       -2.38740        1.52045
H          0.67775       -2.35989        1.10162
H          2.44712       -3.24294        1.10967
H          4.17848       -6.27259        1.89259
H          2.98904       -5.45599        0.84300
H          3.27416       -4.86309        2.50815
H          6.35416       -0.65904       -0.47485
H          6.64061       -2.99926        0.30798
H          2.76916        2.37949       -0.94436
H          4.96142        1.27518       -0.92514
H          0.39663        2.32357       -0.51936
