53
anti_S_NPh_2-CF3_m-CF3benz.log	Energy: -1382846.3912985
C         -2.69374       -1.94347        0.24019
C         -1.67996       -0.98673        0.17534
C         -0.30686       -1.36438        0.08680
C          0.65774       -0.40184        0.02726
C          2.10689       -0.44870       -0.07779
C          3.02499       -1.49168       -0.14153
C          4.37868       -1.19617       -0.23021
C          2.55594        0.88557       -0.10777
C          3.90841        1.19700       -0.18492
C          4.80636        0.13632       -0.24866
C          6.28331        0.42492       -0.27625
F          6.94945       -0.45840       -1.03959
F          6.55014        1.65167       -0.75620
F          6.82157        0.35940        0.95514
C          0.29698        0.99261        0.05722
N          1.46551        1.74823       -0.02688
C          1.53274        3.16393       -0.02411
C          0.99067        3.88305        1.04116
C          1.05235        5.27230        1.03708
C          1.67142        5.94415       -0.01396
C          2.22012        5.22219       -1.07045
C          2.14232        3.83356       -1.08497
C         -1.00157        1.40456        0.12993
C         -2.02855        0.41479        0.19320
C         -3.37590        0.76824        0.27186
C         -4.39296       -0.19018        0.33574
C         -5.76332        0.18038        0.41565
C         -6.73902       -0.78126        0.47827
C         -8.17226       -0.61475        0.56304
C         -8.83094       -1.78815        0.60790
C        -10.31441       -1.95515        0.70077
F        -10.93131       -0.76524        0.71570
F        -10.79893       -2.65441       -0.33778
F        -10.66873       -2.61327        1.81603
C         -6.37369       -2.17182        0.46292
S         -7.79423       -3.20570        0.55239
C         -5.07125       -2.57214        0.38647
C         -4.04275       -1.58790        0.32053
H         -2.42536       -2.99756        0.22682
H         -0.04829       -2.41974        0.06314
H          2.68942       -2.52408       -0.12330
H          5.10916       -1.99501       -0.28942
H          4.25463        2.22373       -0.19619
H          0.53099        3.34802        1.86633
H          0.62763        5.83021        1.86590
H          1.72656        7.02821       -0.00930
H          2.70027        5.74073       -1.89446
H          2.54608        3.26278       -1.91556
H         -1.26754        2.45677        0.13532
H         -3.64508        1.82203        0.28367
H         -6.02835        1.23439        0.42651
H         -8.66615        0.34871        0.58805
H         -4.79979       -3.62380        0.37466
