54
anti_C_NPh_2-Cl_p-OMebenz.log	Energy: -1118906.5665083
C         -2.89288       -1.76354        0.03605
C         -1.85089       -0.84530        0.02482
C         -0.48584       -1.26861       -0.04273
C          0.51151       -0.34313       -0.04886
C          1.96156       -0.44503       -0.12261
C          2.82412       -1.52759       -0.18901
C          4.20029       -1.29446       -0.23074
O          4.98198       -2.40815       -0.30022
C          6.37831       -2.23519       -0.33418
C          2.46419        0.86957       -0.10134
C          3.82882        1.10872       -0.12902
C          4.69395        0.01530       -0.19679
C          0.20193        1.06685        0.01709
N          1.39857        1.77704       -0.01545
C          1.52066        3.18514        0.02109
C          0.94085        3.90968        1.06366
C          1.05487        5.29534        1.09023
C          1.76405        5.96138        0.09399
C          2.35099        5.23531       -0.93899
C          2.22201        3.85135       -0.98503
C         -1.08186        1.52287        0.06865
C         -2.15050        0.57157        0.07672
C         -3.48032        0.97301        0.13323
C         -4.53873        0.04839        0.14386
C         -5.88849        0.45272        0.20148
C         -6.92281       -0.46828        0.21238
C         -8.29810       -0.05956        0.27073
C         -9.28261       -0.99242        0.27957
Cl       -10.96018       -0.50139        0.34993
C         -6.61968       -1.87831        0.16385
C         -7.70936       -2.81304        0.17642
C         -8.99966       -2.39470        0.23223
C         -5.29866       -2.28771        0.10674
C         -4.23738       -1.36022        0.09490
H         -2.66355       -2.82632       -0.00279
H         -0.26424       -2.33146       -0.09430
H          2.46139       -2.55019       -0.20552
H          6.80507       -3.23759       -0.38836
H          6.74718       -1.73545        0.57153
H          6.69450       -1.66146       -1.21570
H          4.22655        2.11730       -0.09270
H          5.76099        0.20330       -0.21959
H          0.41044        3.38015        1.84889
H          0.59903        5.85473        1.90152
H          1.85848        7.04244        0.12233
H          2.89995        5.74861       -1.72262
H          2.65378        3.27985       -1.80085
H         -1.31065        2.58337        0.09779
H         -3.71165        2.03520        0.17035
H         -6.11781        1.51530        0.23793
H         -8.53585        0.99874        0.30712
H         -7.48224       -3.87504        0.14001
H         -9.82220       -3.10108        0.24159
H         -5.06899       -3.35045        0.06982
