39
anti_S_O_2-CN_diOMe.log	Energy: -932633.2786375
C          0.95504       -1.22438        0.39692
C          2.13985       -0.50762        0.22161
C          3.41576       -1.12749        0.39216
C          4.54643       -0.38274        0.20496
C          5.96785       -0.63199        0.28307
O          6.56517       -1.81598        0.60581
C          6.52428       -2.76920       -0.44657
C          6.57435        0.55350       -0.00430
O          7.82500        0.97644       -0.07826
C          8.84548        0.02361        0.20476
C          4.43819        0.99980       -0.14129
O          5.68691        1.55433       -0.25621
C          3.26384        1.64875       -0.31657
C          2.06093        0.89152       -0.13876
C          0.80899        1.47876       -0.30242
C         -0.37844        0.75715       -0.12765
C         -1.65033        1.36390       -0.29669
C         -2.79775        0.63057       -0.11744
C         -4.16839        1.05768       -0.24070
C         -5.05300        0.06261        0.00914
C         -6.47007        0.17857       -0.03397
N         -7.62594        0.26972       -0.06830
C         -2.70725       -0.75838        0.24330
S         -4.30109       -1.48016        0.41594
C         -1.50365       -1.37956        0.41530
C         -0.30228       -0.63550        0.23348
H          1.01239       -2.27566        0.66990
H          3.46965       -2.17389        0.67751
H          5.49441       -2.96682       -0.76684
H          6.96675       -3.68646       -0.05397
H          7.10210       -2.42145       -1.31328
H          9.78156        0.57778        0.14601
H          8.84261       -0.77998       -0.53826
H          8.71598       -0.40140        1.20280
H          3.22489        2.70101       -0.57698
H          0.75007        2.53046       -0.57350
H         -1.70661        2.41458       -0.56912
H         -4.46765        2.06501       -0.50439
H         -1.44051       -2.42895        0.68812
