52
anti_NPh_NPh_2-Cl_2-Cl.log	Energy: -1370159.4736607
C          0.80663       -1.45104        1.04160
C          2.13841       -1.02861        0.99131
C          3.09395       -1.46634        1.95144
C          4.39157       -1.03285        1.86893
C          5.57332       -1.27266        2.66082
C          6.56853       -0.55575        2.08584
Cl         8.21707       -0.47993        2.56860
C          4.77673       -0.13857        0.80854
N          6.13266        0.14429        0.96744
C          6.89595        0.98262        0.11216
C          7.04145        0.63590       -1.23037
C          7.76236        1.46650       -2.08136
C          8.35063        2.62952       -1.59085
C          8.20712        2.96786       -0.24787
C          7.47010        2.15284        0.60459
C          3.89739        0.31861       -0.13055
C          2.54455       -0.12376       -0.06053
C          1.59149        0.29804       -0.99017
C          0.25971       -0.12439       -0.93987
C         -0.69584        0.31332       -1.90000
C         -1.99344       -0.12021       -1.81750
C         -3.17516        0.11950       -2.60948
C         -4.17039       -0.59737       -2.03450
Cl        -5.81892       -0.67321       -2.51729
C         -2.37860       -1.01456       -0.75716
N         -3.73450       -1.29749       -0.91612
C         -4.49780       -2.13584       -0.06089
C         -4.64308       -1.78933        1.28170
C         -5.36402       -2.61996        2.13266
C         -5.95253       -3.78280        1.64205
C         -5.80924       -4.12094        0.29897
C         -5.07220       -3.30591       -0.55344
C         -1.49925       -1.47170        0.18194
C         -0.14643       -1.02927        0.11195
H          0.50250       -2.13239        1.83357
H          2.78008       -2.13994        2.74431
H          5.66728       -1.90211        3.53258
H          6.58981       -0.28166       -1.59423
H          7.87358        1.19766       -3.12725
H          8.91968        3.27249       -2.25522
H          8.66037        3.87598        0.13727
H          7.33406        2.41672        1.64830
H          4.20461        1.00303       -0.91539
H          1.89560        0.97941       -1.78212
H         -0.38203        0.98701       -2.69282
H         -3.26908        0.74892       -3.48127
H         -4.19128       -0.87189        1.64569
H         -5.47505       -2.35126        3.17861
H         -6.52159       -4.42580        2.30638
H         -6.26268       -5.02893       -0.08625
H         -4.93632       -3.56964       -1.59721
H         -1.80643       -2.15615        0.96677
