30
anti_S_O_2-F_C.log	Energy: -793341.4737696
C          1.22376       -1.19309        0.23494
C          2.38423       -0.42130        0.11688
C          3.67859       -1.01620        0.18292
C          4.78681       -0.22238        0.06248
C          6.22013       -0.43548        0.07526
C          6.77437        0.77861       -0.09631
C          4.62798        1.18560       -0.12699
O          5.85426        1.78248       -0.22213
C          3.42572        1.81338       -0.19853
C          2.25477        1.00536       -0.07539
C          0.97630        1.56581       -0.13689
C         -0.18002        0.79204       -0.01860
C         -1.48010        1.37187       -0.08255
C         -2.59871        0.59163        0.03609
C         -3.99176        0.98678       -0.00192
C         -4.80219       -0.07071        0.15075
F         -6.12636       -0.05505        0.16346
C         -2.44950       -0.83045        0.22754
S         -4.01702       -1.63182        0.35398
C         -1.22779       -1.42800        0.29479
C         -0.05046       -0.62964        0.17297
H          1.31980       -2.26702        0.37961
H          3.76445       -2.08940        0.32771
H          6.74593       -1.37088        0.19660
H          7.80367        1.10053       -0.15189
H          3.34773        2.88557       -0.34331
H          0.87902        2.63946       -0.28164
H         -1.57256        2.44503       -0.22726
H         -4.34473        2.00095       -0.13565
H         -1.12737       -2.49997        0.43917
