49
anti_O_NPh_diF_diOMe.log	Energy: -929077.0497459
C          0.16130       -0.92699       -1.32663
C         -1.09785       -0.98261       -0.72118
C         -2.20539       -1.61150       -1.35824
C         -3.42272       -1.63492       -0.73181
C         -4.70454       -2.19038       -1.08461
O         -4.98739       -2.86247       -2.24323
C         -5.11501       -2.00842       -3.36892
C         -5.55447       -1.93782       -0.04272
O         -6.83820       -2.21551        0.18712
C         -7.55324       -2.89256       -0.83841
C         -3.57702       -1.04086        0.56982
N         -4.89369       -1.24936        0.97279
C         -5.47778       -0.78738        2.17921
C         -6.13138       -1.67667        3.03153
C         -6.69189       -1.20964        4.21481
C         -6.58441        0.13451        4.56280
C         -5.92369        1.01724        3.71316
C         -5.37999        0.56261        2.51652
C         -2.54206       -0.44151        1.22581
C         -1.26826       -0.39128        0.58511
C         -0.17107        0.21643        1.19927
C          1.08724        0.27314        0.59435
C          2.19381        0.90024        1.24197
C          3.40224        0.92745        0.60550
C          4.71704        1.44076        0.90133
F          5.08293        2.08475        2.00731
C          5.49229        1.14081       -0.15517
F          6.75737        1.38045       -0.39007
C          3.54529        0.33470       -0.68716
O          4.84140        0.47698       -1.13868
C          2.53546       -0.27456       -1.35334
C          1.25704       -0.31925       -0.71288
H          0.29028       -1.37401       -2.31002
H         -2.06886       -2.08233       -2.32784
H         -5.26726       -2.65349       -4.23669
H         -4.21275       -1.40296       -3.51636
H         -5.97479       -1.33370       -3.25625
H         -7.07834       -3.84479       -1.08520
H         -7.61804       -2.27441       -1.73961
H         -8.55176       -3.05800       -0.43375
H         -6.19764       -2.72436        2.76055
H         -7.20431       -1.90352        4.87420
H         -7.01467        0.49257        5.49298
H         -5.84088        2.06785        3.97432
H         -4.88236        1.24739        1.83702
H         -2.66355       -0.01579        2.21687
H         -0.29937        0.66057        2.18410
H          2.06428        1.34410        2.22410
H          2.68190       -0.71427       -2.33410
