32
anti_S_O_diCN_diCl.log	Energy: -1423586.3135543
C         -0.03792        1.47806        0.39202
C         -1.18429        0.68653        0.29343
C         -2.48603        1.27121        0.30469
C         -3.57371        0.45234        0.20485
C         -5.00587        0.64560        0.17894
Cl        -5.83059        2.14393        0.27940
C         -5.55159       -0.58414        0.06019
Cl        -7.17560       -1.06737       -0.02900
C         -3.40343       -0.96091        0.09188
O         -4.62566       -1.57941        0.00443
C         -2.19751       -1.57875        0.07541
C         -1.03774       -0.74849        0.17801
C          0.24338       -1.29848        0.16860
C          1.38984       -0.50335        0.26710
C          2.69004       -1.07452        0.25556
C          3.79118       -0.26433        0.35341
C          5.19026       -0.64137        0.36004
C          5.62443       -1.99525        0.25896
N          5.92666       -3.11107        0.17437
C          6.02732        0.42991        0.47245
C          7.44750        0.38131        0.50712
N          8.60615        0.35748        0.53643
C          3.63812        1.15748        0.46783
S          5.19594        1.96666        0.57782
C          2.40700        1.74572        0.48287
C          1.24510        0.92649        0.38222
H         -0.14914        2.55616        0.47875
H         -2.59712        2.34766        0.39121
H         -2.10658       -2.65575       -0.01179
H          0.35622       -2.37628        0.08199
H          2.80571       -2.15159        0.16891
H          2.29233        2.82201        0.56936
