43
anti_C_C_2-CN_diCF3.log	Energy: -1011922.7122851
C         -2.86732        0.00433       -0.63377
C         -3.87263       -0.09961        0.33354
C         -5.22889        0.13387        0.00997
C         -6.23963        0.03553        0.95307
C         -7.64886        0.26967        0.65409
C         -7.96017        0.65285       -0.78442
F         -7.55652       -0.31827       -1.62709
F         -9.24323        0.87746       -1.05090
F         -7.29643        1.77567       -1.12331
C         -8.59081        0.14153        1.64212
C        -10.09097        0.35087        1.45011
F        -10.60962       -0.49939        0.55552
F        -10.75639        0.13648        2.60064
F        -10.38415        1.60268        1.07714
C         -5.86940       -0.32149        2.30575
C         -6.89887       -0.43341        3.29170
C         -8.19471       -0.21519        2.97619
C         -4.54863       -0.55161        2.63838
C         -3.51443       -0.45180        1.68460
C         -2.17227       -0.68129        2.00164
C         -1.16831       -0.57717        1.03562
C          0.19362       -0.80687        1.34252
C          1.17807       -0.70177        0.37978
C          2.55884       -0.93441        0.68916
C          3.51611       -0.82560       -0.27649
C          4.89414       -1.06195        0.04969
N          6.00939       -1.25114        0.30389
C          0.82160       -0.34927       -0.97787
C          1.87078       -0.24788       -1.95808
C          3.16493       -0.47452       -1.63062
C         -0.50153       -0.12190       -1.29348
C         -1.52563       -0.22459       -0.32092
H         -3.13763        0.26975       -1.65295
H         -5.44490        0.39422       -1.01671
H         -6.62053       -0.70063        4.30703
H         -8.95895       -0.30697        3.73499
H         -4.29887       -0.81805        3.66247
H         -1.90441       -0.94667        3.02154
H          0.46480       -1.07196        2.36165
H          2.83362       -1.19929        1.70564
H          1.60176        0.01673       -2.97663
H          3.95287       -0.39724       -2.37171
H         -0.77264        0.14319       -2.31262
