38
anti_S_O_p-CNbenz_3-CN.log	Energy: -943202.9095730
C         -3.83696        0.44030        0.76066
C         -4.81739       -0.44754        0.30372
C         -6.20382       -0.17469        0.49447
C         -7.11958       -1.07475        0.02854
C         -8.57195       -1.16419        0.02249
C         -9.49102       -0.22646        0.56349
N        -10.21989        0.55505        1.01354
C         -8.87387       -2.32667       -0.60547
C         -6.68851       -2.25965       -0.63349
O         -7.77920       -3.00662       -1.01046
C         -5.38703       -2.57887       -0.84704
C         -4.40552       -1.65722       -0.37127
C         -3.04038       -1.90169       -0.54594
C         -2.06755       -1.01295       -0.08832
C         -0.67657       -1.26906       -0.27026
C          0.25748       -0.38343        0.18644
C          1.71282       -0.46088        0.10017
C          2.49088       -1.46274       -0.47099
C          3.88127       -1.34678       -0.44944
C          4.68886       -2.37856       -1.03734
N          5.33946       -3.21231       -1.51207
C          2.34227        0.64985        0.68854
C          3.72999        0.77052        0.71258
C          4.49760       -0.23200        0.14134
C         -0.16576        0.81692        0.85614
S          1.20432        1.81144        1.35862
C         -1.48180        1.10410        1.05313
C         -2.47694        0.19245        0.58406
H         -4.14812        1.35017        1.26830
H         -6.51287        0.73433        1.00166
H         -9.82444       -2.78743       -0.82972
H         -5.09548       -3.49117       -1.35563
H         -2.72842       -2.81139       -1.05357
H         -0.37605       -2.18146       -0.77885
H          2.02987       -2.33052       -0.93139
H          4.20680        1.63143        1.16894
H          5.57979       -0.16128        0.14743
H         -1.79456        2.01241        1.55972
