43
anti_C_O_2-Cl_p-OMebenz.log	Energy: -986424.1095151
C         -2.91476       -1.80125        0.04845
C         -1.85488       -0.90355        0.05457
C         -0.49741       -1.35633       -0.01975
C          0.51284       -0.44483       -0.01101
C          1.96580       -0.51574       -0.06914
C          2.88646       -1.54859       -0.15649
C          4.24705       -1.22969       -0.19106
O          5.09157       -2.29272       -0.27691
C          6.47685       -2.04082       -0.31515
C          2.40483        0.81243       -0.01758
C          3.74128        1.14844       -0.05048
C          4.66728        0.10646       -0.13848
C          0.21495        0.95881        0.07214
O          1.36184        1.70552        0.06733
C         -1.04338        1.45276        0.14487
C         -2.13122        0.51750        0.13794
C         -3.45085        0.94311        0.20965
C         -4.52693        0.03782        0.20380
C         -5.86750        0.46711        0.27646
C         -6.91927       -0.43427        0.26981
C         -8.28590       -0.00048        0.34345
C         -9.28816       -0.91434        0.33415
Cl       -10.95514       -0.39381        0.42294
C         -6.64280       -1.84793        0.18675
C         -7.75007       -2.76201        0.18152
C         -9.03169       -2.32016        0.25241
C         -5.33007       -2.28129        0.11492
C         -4.25148       -1.37380        0.12084
H         -2.70632       -2.86707       -0.01413
H         -0.29668       -2.42233       -0.08190
H          2.58541       -2.58988       -0.19848
H          6.95796       -3.01725       -0.38288
H          6.82080       -1.53207        0.59503
H          6.75490       -1.44068       -1.19155
H          4.06321        2.18279       -0.00960
H          5.72185        0.35349       -0.16535
H         -1.23405        2.51869        0.20669
H         -3.66165        2.00819        0.27225
H         -6.07604        1.53266        0.33901
H         -8.50296        1.06101        0.40597
H         -7.54353       -3.82694        0.11913
H         -9.86754       -3.01079        0.24837
H         -5.12094       -3.34698        0.05229
