42
anti_C_O_3-F_m-CF3benz.log	Energy: -899887.5903014
C         -3.01831       -1.54670       -0.48700
C         -1.91423       -0.78062       -0.13436
C         -0.58644       -1.18798       -0.48509
C          0.46881       -0.40886       -0.12101
C          1.91236       -0.48348       -0.28836
C          2.79012       -1.38413       -0.88430
C          4.15229       -1.11501       -0.84065
C          2.41947        0.66173        0.33549
C          3.76924        0.95422        0.39367
C          4.62976        0.03938       -0.20914
C          6.10928        0.31896       -0.23634
F          6.82828       -0.80221       -0.05796
F          6.48713        0.84044       -1.41725
F          6.47663        1.19015        0.71653
C          0.24600        0.80786        0.60750
O          1.43433        1.44155        0.87541
C         -0.97947        1.25130        0.97052
C         -2.11314        0.45270        0.60171
C         -3.40521        0.83556        0.93513
C         -4.52504        0.06308        0.58004
C         -5.83664        0.45209        0.91848
C         -6.92401       -0.32324        0.55874
C         -8.27034        0.04372        0.88720
F         -8.43664        1.18876        1.56917
C         -9.34445       -0.70394        0.54238
C         -6.73732       -1.55238       -0.17408
C         -7.89173       -2.33006       -0.52961
C         -9.14034       -1.92001       -0.18431
C         -5.44982       -1.93738       -0.50806
C         -4.32750       -1.16222       -0.15140
H         -2.86716       -2.47159       -1.03914
H         -0.44393       -2.11306       -1.03666
H          2.42155       -2.28123       -1.37125
H          4.85603       -1.80495       -1.29280
H          4.13404        1.84651        0.88699
H         -1.11193        2.17626        1.52096
H         -3.55944        1.75969        1.48706
H         -5.99288        1.37395        1.46939
H        -10.34023       -0.37618        0.81824
H         -7.74387       -3.25399       -1.08104
H        -10.00672       -2.51406       -0.45719
H         -5.29632       -2.86177       -1.06020
