53
anti_NPh_NPh_2-CN_diCl.log	Energy: -1428019.6257088
C          0.81970       -1.37757       -1.07414
C          2.15479       -0.99255       -0.93413
C          3.14192       -1.38394       -1.88268
C          4.43885       -0.98725       -1.70439
C          5.65257       -1.19241       -2.45128
Cl         5.79617       -2.10070       -3.90359
C          6.65200       -0.54970       -1.79213
Cl         8.31013       -0.48820       -2.20213
C          4.80492       -0.18333       -0.56912
N          6.17183        0.07430       -0.64776
C          6.91513        0.83037        0.29933
C          7.52024        2.02694       -0.07857
C          8.23542        2.75997        0.86227
C          8.32577        2.31257        2.17779
C          7.70664        1.12292        2.55275
C          7.00713        0.37365        1.61299
C          3.89372        0.22509        0.36129
C          2.53549       -0.17684        0.19904
C          1.55288        0.20098        1.11412
C          0.21431       -0.18355        0.97400
C         -0.77248        0.21723        1.91306
C         -2.07484       -0.18299        1.74352
C         -3.28352        0.05537        2.48402
C         -4.28371       -0.59476        1.82511
C         -5.65659       -0.66359        2.19786
N         -6.77090       -0.70032        2.51622
C         -2.43343       -1.00816        0.61996
N         -3.79946       -1.24933        0.69284
C         -4.55813       -2.03682       -0.21273
C         -4.16946       -3.35104       -0.47233
C         -4.90410       -4.12050       -1.36717
C         -6.03483       -3.59070       -1.98377
C         -6.42454       -2.28273       -1.71091
C         -5.68183       -1.49728       -0.83593
C         -1.52010       -1.40696       -0.31780
C         -0.16613       -1.00178       -0.15662
H          0.53758       -1.99079       -1.92707
H          2.85824       -1.98944       -2.73857
H          7.42549        2.37494       -1.10203
H          8.71357        3.68891        0.56798
H          8.87818        2.89166        2.91123
H          7.77731        0.76981        3.57677
H          6.53229       -0.56375        1.88524
H          4.18073        0.84163        1.20735
H          1.83476        0.81621        1.96588
H         -0.48624        0.84204        2.75466
H         -3.39784        0.62840        3.39224
H         -3.30195       -3.76215        0.03424
H         -4.59988       -5.14257       -1.57033
H         -6.61237       -4.19740       -2.67414
H         -7.30488       -1.86433       -2.18827
H         -5.96909       -0.47014       -0.63589
H         -1.80533       -2.01280       -1.17191
