30
anti_S_S_C_C.log	Energy: -933767.8595765
C          1.33832       -1.11246        0.23634
C          2.48157       -0.32314        0.08520
C          3.78972       -0.87823        0.16134
C          4.89415       -0.08085        0.00921
C          6.29629       -0.44239        0.05080
C          7.11539        0.60865       -0.14031
C          4.72412        1.32892       -0.22918
S          6.28239        2.13012       -0.38852
C          3.48934        1.90347       -0.30963
C          2.32808        1.09058       -0.15412
C          1.04253        1.63008       -0.22790
C         -0.10072        0.84077       -0.07666
C         -1.40886        1.39591       -0.15258
C         -2.51330        0.59853       -0.00047
C         -3.91543        0.96011       -0.04176
C         -4.73452       -0.09087        0.14977
C         -2.34326       -0.81129        0.23760
S         -3.90155       -1.61260        0.39635
C         -1.10849       -1.38587        0.31794
C          0.05277       -0.57296        0.16257
H          1.45428       -2.17894        0.41685
H          3.90165       -1.94432        0.34191
H          6.64494       -1.45467        0.21871
H          8.19753        0.59746       -0.15386
H          3.36965        2.96802       -0.48982
H          0.92657        2.69655       -0.40844
H         -1.52078        2.46203       -0.33293
H         -4.26409        1.97244       -0.20934
H         -5.81665       -0.07958        0.16382
H         -0.98882       -2.45047        0.49789
