51
anti_O_NPh_p-CNbenz_2-CF3.log	Energy: -1026590.6891639
C         -2.86231       -2.21717        1.45383
C         -3.92021       -1.41314        1.00365
C         -5.27005       -1.73211        1.30531
C         -6.27865       -0.92186        0.84516
C         -7.71351       -0.95324        0.96373
C         -8.18733        0.12679        0.29266
C         -9.62106        0.51562        0.12607
F        -10.42123       -0.44190        0.61019
F         -9.91603        1.65426        0.78135
F         -9.94033        0.70900       -1.16254
C         -5.95975        0.24068        0.06329
N         -7.15262        0.87367       -0.25798
C         -7.24969        2.03208       -1.08253
C         -6.89581        1.93954       -2.42736
C         -6.95704        3.07088       -3.23292
C         -7.38043        4.28586       -2.69931
C         -7.73350        4.37091       -1.35558
C         -7.65909        3.24680       -0.53938
C         -4.67432        0.59210       -0.24953
C         -3.62087       -0.23781        0.21880
C         -2.28032        0.05741       -0.06267
C         -1.23345       -0.74337        0.38711
C          0.12781       -0.42155        0.08721
C          1.12173       -1.23263        0.54639
C          2.57411       -1.24032        0.45384
C          3.52114       -0.42039       -0.14110
C          4.87144       -0.76417       -0.00910
C          5.87539        0.06516       -0.61397
N          6.68518        0.73560       -1.10283
C          2.98874       -2.37714        1.16267
C          4.31949       -2.73538        1.30533
C          5.26202       -1.90944        0.70677
C          0.79845       -2.39358        1.32061
O          1.94059       -3.07278        1.68396
C         -0.46562       -2.75541        1.64038
C         -1.53312       -1.92101        1.17132
H         -3.09219       -3.10143        2.04399
H         -5.48991       -2.61489        1.89939
H         -8.31156       -1.69017        1.47798
H         -6.58041        0.98184       -2.82941
H         -6.68292        3.00067       -4.28089
H         -7.43424        5.16677       -3.33146
H         -8.05972        5.31744       -0.93624
H         -7.91848        3.30200        0.51173
H         -4.45212        1.47782       -0.83664
H         -2.05086        0.94241       -0.65204
H          0.34687        0.46472       -0.50189
H          3.23400        0.46624       -0.69622
H          4.60639       -3.62095        1.85993
H          6.31735       -2.14565        0.78890
H         -0.67474       -3.64186        2.22931
