43
anti_S_NPh_2-CN_2-CN.log	Energy: -979294.0591964
C          0.55378        0.63228        1.98914
C          1.91361        0.70966        1.66141
C          2.89508        0.98943        2.64768
C          4.21890        1.05488        2.28865
C          5.42603        1.32468        3.02013
C          6.45023        1.26412        2.12307
C          7.83869        1.44409        2.38559
N          8.96335        1.60118        2.61884
C          4.60472        0.83522        0.91935
N          5.98311        0.96829        0.84312
C          6.77480        0.80571       -0.32580
C          6.69360       -0.38416       -1.04852
C          7.45870       -0.54167       -2.19847
C          8.31733        0.47333       -2.61329
C          8.40262        1.65333       -1.88009
C          7.62337        1.82956       -0.74164
C          3.69242        0.57556       -0.06776
C          2.31802        0.50506        0.28749
C          1.33292        0.24012       -0.67029
C         -0.02049        0.16531       -0.33968
C         -1.01408       -0.10483       -1.32170
C         -2.33692       -0.17398       -0.96791
C         -3.48044       -0.43393       -1.80672
C         -4.64710       -0.42965       -1.11937
C         -5.93850       -0.65463       -1.67247
N         -6.99257       -0.83787       -2.12037
C         -2.72404        0.02774        0.40505
S         -4.46579       -0.11037        0.60623
C         -1.80602        0.28948        1.37811
C         -0.42310        0.36629        1.03236
H          0.25382        0.78584        3.02325
H          2.58723        1.15408        3.67643
H          5.52511        1.53093        4.07550
H          6.04101       -1.17861       -0.70027
H          7.39497       -1.46714       -2.76216
H          8.92135        0.34330       -3.50569
H          9.07069        2.44712       -2.19853
H          7.67043        2.75491       -0.17674
H          3.99392        0.43004       -1.10007
H          1.63218        0.08789       -1.70478
H         -0.71230       -0.25553       -2.35481
H         -3.42064       -0.61421       -2.87332
H         -2.10145        0.44144        2.41213
