30
anti_S_S_2-F_diF.log	Energy: -1120512.4877122
C          1.14847       -1.27572        0.00258
C          2.32171       -0.51676        0.00381
C          3.60725       -1.12800        0.00666
C          4.73163       -0.34990        0.00779
C          6.11480       -0.75858        0.01061
F          6.47188       -2.04302        0.01258
C          6.97297        0.27464        0.01100
F          8.29367        0.20347        0.01336
C          4.62542        1.08323        0.00610
S          6.21129        1.86196        0.00804
C          3.41412        1.70672        0.00337
C          2.22240        0.92120        0.00214
C          0.95925        1.51570       -0.00065
C         -0.21371        0.75679       -0.00189
C         -1.50027        1.36776       -0.00475
C         -2.63555        0.60225       -0.00591
C         -4.01938        1.02833       -0.00876
C         -4.85184       -0.02341       -0.00912
F         -6.17456        0.01764       -0.01147
C         -2.51634       -0.83543       -0.00420
S         -4.09940       -1.61340       -0.00609
C         -1.30733       -1.46275       -0.00146
C         -0.11375       -0.68049       -0.00022
H          1.22250       -2.36082        0.00385
H          3.68928       -2.21076        0.00794
H          3.33486        2.79006        0.00211
H          0.88543        2.60089       -0.00191
H         -1.56981        2.45225       -0.00600
H         -4.35123        2.05827       -0.01042
H         -1.23013       -2.54619       -0.00018
