38
anti_S_S_diCl_diOMe.log	Energy: -1654223.1889129
C         -0.29784        1.28664        0.26216
C         -1.39280        0.43448        0.41995
C         -2.72682        0.93065        0.48398
C         -3.77545        0.06640        0.64373
C         -5.18654        0.37722        0.74524
O         -5.64408        1.66831        0.71805
C         -5.58859        2.30401        1.98836
C         -5.96115       -0.73007        0.87636
O         -7.28253       -0.89186        0.99156
C         -8.12464        0.16647        0.54351
C         -3.53517       -1.34741        0.73111
S         -5.04309       -2.24213        0.89200
C         -2.27755       -1.86593        0.67456
C         -1.16308       -0.98556        0.52016
C          0.14344       -1.46934        0.45968
C          1.24000       -0.61564        0.30405
C          2.57017       -1.11601        0.24473
C          3.62174       -0.25350        0.09140
C          5.03918       -0.54608        0.00836
Cl         5.65447       -2.15405        0.09845
C          5.80205        0.55680       -0.14320
Cl         7.50910        0.61682       -0.27754
C          3.38357        1.15898       -0.01032
S          4.88696        2.05648       -0.20130
C          2.12437        1.67975        0.04172
C          1.01132        0.80294        0.20161
H         -0.47019        2.35774        0.18423
H         -2.90831        1.99821        0.39476
H         -4.57274        2.27987        2.40051
H         -6.27144        1.82072        2.69928
H         -5.89563        3.33980        1.83165
H         -9.12999       -0.25473        0.52177
H         -7.82996        0.49711       -0.45630
H         -8.09267        1.01703        1.22948
H         -2.10153       -2.93596        0.73959
H          0.31625       -2.54050        0.53536
H          2.74395       -2.18544        0.32195
H          1.95045        2.74912       -0.03601
