37
anti_S_O_2-CF3_3-OMe.log	Energy: -1014334.4500811
C          1.40029       -1.14958        0.00353
C          2.54801       -0.36858        0.00428
C          3.85444       -0.99173        0.00527
C          4.90732       -0.14844        0.00596
C          7.49001       -0.56053        0.00778
O          8.76193       -0.13928        0.00864
C          8.98853        1.26482        0.00855
C          6.34749        0.12810        0.00689
C          4.75115        1.26665        0.00572
O          6.11074        1.54522        0.00665
C          3.58629        1.93410        0.00481
C          2.41530        1.07867        0.00404
C          1.14162        1.62783        0.00304
C         -0.02096        0.83702        0.00224
C         -1.31528        1.41491        0.00115
C         -2.43210        0.61364        0.00040
C         -3.82458        0.99838       -0.00077
C         -4.65698       -0.06067       -0.00123
C         -6.15127        0.00042       -0.00192
F         -6.57969        1.27054       -0.00529
F         -6.67062       -0.60923       -1.07957
F         -6.67141       -0.60367        1.07849
C         -2.28332       -0.81281        0.00077
S         -3.84590       -1.61799       -0.00034
C         -1.05198       -1.40815        0.00177
C          0.11143       -0.59251        0.00252
H          1.50125       -2.23267        0.00373
H          3.93498       -2.07416        0.00539
H         10.07138        1.39002        0.00902
H          8.55685        1.72873        0.90062
H          8.55763        1.72851       -0.88401
H          7.42297       -1.64321        0.00783
H          3.48820        3.01352        0.00464
H          1.03477        2.71019        0.00284
H         -1.41553        2.49714        0.00090
H         -4.16573        2.02618       -0.00123
H         -0.94410       -2.48896        0.00200
