51
anti_S_NPh_m-CF3benz_3-CN.log	Energy: -1229269.3522757
C         -2.94849       -2.20288        1.36511
C         -4.04996       -1.47968        0.88864
C         -5.38142       -1.89759        1.15922
C         -6.42719       -1.16170        0.67081
C         -7.86851       -1.28601        0.77260
C         -8.58286       -2.30781        1.44794
N         -9.14448       -3.15468        2.00889
C         -8.41054       -0.23693        0.08470
C         -6.18327        0.01534       -0.11219
N         -7.42716        0.55064       -0.45705
C         -7.65740        1.71985       -1.22803
C         -7.03689        1.86803       -2.46812
C         -7.27240        3.01414       -3.21916
C         -8.13724        3.99869       -2.74770
C         -8.76233        3.83861       -1.51430
C         -8.51659        2.70559       -0.74579
C         -4.92184        0.46641       -0.38339
C         -3.81906       -0.28228        0.11467
C         -2.50007        0.11865       -0.12989
C         -1.40862       -0.60393        0.34780
C         -0.06715       -0.18960        0.09460
C          0.98693       -0.91490        0.57202
C          2.41579       -0.65863        0.42234
C          3.04567        0.39126       -0.24868
C          4.42887        0.45855       -0.27992
C          3.19987       -1.63399        1.05740
C          4.58904       -1.57654        1.03304
C          5.19371       -0.52294        0.35909
C          6.69303       -0.39417        0.34856
F          7.30370       -1.54070        0.68689
F          7.14820       -0.03656       -0.86484
F          7.11026        0.54839        1.21283
C          0.74236       -2.10910        1.33766
S          2.24322       -2.88444        1.85034
C         -0.51940       -2.54357        1.60556
C         -1.63880       -1.80075        1.11686
H         -3.12523       -3.10459        1.94681
H         -5.55788       -2.78926        1.75411
H         -9.45148        0.00181       -0.08329
H         -6.38886        1.08173       -2.84182
H         -6.78917        3.12965       -4.18426
H         -8.32387        4.88833       -3.34069
H         -9.43384        4.60441       -1.13910
H         -8.97503        2.58807        0.23150
H         -4.74631        1.37256       -0.95421
H         -2.32305        1.02145       -0.71037
H          0.09882        0.71476       -0.48541
H          2.45464        1.15305       -0.74788
H          4.92354        1.26906       -0.80408
H          5.19060       -2.33416        1.52225
H         -0.69752       -3.44525        2.18433
