48
anti_C_NPh_3-OMe_diF.log	Energy: -858625.2570000
C         -2.33826       -0.95703        2.64373
C         -3.34402       -0.16386        2.09469
C         -4.57878        0.04856        2.77553
C         -5.53932        0.82971        2.19741
C         -6.85018        1.25152        2.60531
F         -7.45930        0.91429        3.74351
C         -7.34520        2.04361        1.62992
F         -8.51543        2.64714        1.55874
C         -5.31283        1.43925        0.90812
N         -6.44573        2.18736        0.58173
C         -6.69012        2.88718       -0.62593
C         -6.48830        2.24692       -1.84891
C         -6.71066        2.94028       -3.03336
C         -7.15727        4.25865       -3.00231
C         -7.37248        4.88687       -1.77866
C         -7.12917        4.21024       -0.58873
C         -4.14260        1.27704        0.22793
C         -3.12270        0.46179        0.80649
C         -1.90896        0.25392        0.15549
C         -0.89709       -0.54318        0.70834
C          0.33404       -0.75395        0.04738
C          1.32214       -1.54192        0.60263
C          2.58743       -1.76298       -0.06841
O          2.69624       -1.13409       -1.26309
C          3.89642       -1.29321       -1.98387
C          3.55069       -2.54497        0.49767
C          1.10841       -2.17080        1.88510
C          2.15289       -2.98640        2.44208
C          3.31810       -3.15947        1.77069
C         -0.09341       -1.96951        2.53822
C         -1.11744       -1.16722        1.98813
H         -2.50509       -1.42662        3.61069
H         -4.74255       -0.40680        3.74740
H         -6.16704        1.21037       -1.86402
H         -6.54827        2.44121       -3.98370
H         -7.33824        4.79442       -3.92882
H         -7.71936        5.91504       -1.74715
H         -7.27411        4.70199        0.36708
H         -3.96914        1.75498       -0.73089
H         -1.73874        0.72344       -0.81094
H          0.50408       -0.28543       -0.91636
H          4.75497       -0.91064       -1.41739
H          3.77838       -0.71323       -2.89980
H          4.07164       -2.34625       -2.23844
H          4.49974       -2.71621        0.00391
H          1.98757       -3.45718        3.40682
H          4.10524       -3.77623        2.19431
H         -0.25901       -2.44090        3.50450
