48
anti_C_C_2-CF3_m-CF3benz.log	Energy: -1050457.2532086
C         -2.24136        1.34329        0.77162
C         -3.47103        0.69212        0.71289
C         -4.69521        1.37830        0.94480
C         -5.91405        0.74770        0.88940
C         -7.18698        1.44551        1.12755
C         -7.25526        2.81675        1.43011
C         -8.46275        3.44812        1.64813
C         -8.39601        0.71982        1.05048
C         -9.61837        1.37201        1.27503
C         -9.65544        2.71975        1.57001
C        -10.95738        3.41609        1.85230
F        -11.02972        4.59925        1.21692
F        -12.01849        2.68781        1.47065
F        -11.10207        3.67266        3.16520
C         -5.94692       -0.66866        0.58271
C         -7.22279       -1.34839        0.51950
C         -8.37744       -0.69491        0.73927
C         -4.77781       -1.35315        0.35522
C         -3.51022       -0.71585        0.40897
C         -2.31885       -1.39938        0.17998
C         -1.07814       -0.74872        0.23778
C          0.13684       -1.43047        0.00722
C          1.35464       -0.77869        0.06619
C          2.59215       -1.46824       -0.16813
C          3.77516       -0.80717       -0.10547
C          5.07747       -1.51345       -0.34911
F          4.91698       -2.81754       -0.61893
F          5.74084       -0.96624       -1.38450
F          5.88898       -1.41999        0.72058
C          1.39590        0.63248        0.37014
C          2.67721        1.28322        0.42409
C          3.82284        0.59617        0.19629
C          0.21462        1.31263        0.59841
C         -1.03772        0.66178        0.54187
H         -2.21105        2.40612        1.00087
H         -4.62699        2.43747        1.17102
H         -6.34915        3.40809        1.49533
H         -8.48908        4.50880        1.87504
H        -10.54089        0.80400        1.21059
H         -7.22281       -2.40989        0.28761
H         -9.32817       -1.21826        0.68837
H         -4.81748       -2.41568        0.12627
H         -2.34951       -2.46210       -0.04922
H          0.10800       -2.49325       -0.22192
H          2.56404       -2.52865       -0.39662
H          2.70860        2.34483        0.65273
H          4.78564        1.09471        0.23876
H          0.24381        2.37545        0.82749
