45
anti_S_S_tetClbenz_p-CF3benz.log	Energy: -2491536.8722260
C         -3.63335        1.00500       -0.00552
C         -4.64192        0.03844       -0.00534
C         -6.02089        0.39759       -0.00690
C         -6.98996       -0.56607       -0.00676
C         -8.44033       -0.40555       -0.00825
C         -9.17840        0.77775       -0.01010
C        -10.56340        0.71630       -0.01134
C        -11.39182        1.97108       -0.01380
F        -10.63691        3.08117       -0.01127
F        -12.18966        2.03006       -1.09503
F        -12.19653        2.02974        1.06235
C         -9.11286       -1.63674       -0.00764
C        -10.50504       -1.70165       -0.00889
C        -11.22480       -0.51773       -0.01076
C         -6.61470       -1.95396       -0.00501
S         -8.02199       -3.01876       -0.00521
C         -5.30967       -2.34475       -0.00344
C         -4.28075       -1.35513       -0.00357
C         -2.92956       -1.70464       -0.00204
C         -1.92129       -0.73720       -0.00221
C         -0.54557       -1.10898       -0.00064
C          0.44295       -0.15856       -0.00085
C          1.90686       -0.29449        0.00055
C          2.72619       -1.43155        0.00259
Cl         2.03943       -3.02473        0.00389
C          4.12104       -1.30891        0.00367
Cl         5.11931       -2.72097        0.00625
C          2.53773        0.96406       -0.00037
C          3.92091        1.10022        0.00064
Cl         4.60944        2.68806       -0.00066
C          4.72234       -0.04036        0.00268
Cl         6.44137        0.11386        0.00400
C          0.05553        1.22942       -0.00273
S          1.43288        2.32254       -0.00285
C         -1.24611        1.62968       -0.00424
C         -2.28321        0.65254       -0.00402
H         -3.90770        2.05731       -0.00688
H         -6.28640        1.45156       -0.00824
H         -8.67707        1.73932       -0.01056
H        -11.01900       -2.65707       -0.00840
H        -12.30961       -0.54575       -0.01171
H         -5.03240       -3.39484       -0.00212
H         -2.65363       -2.75653       -0.00069
H         -0.30933       -2.16368        0.00071
H         -1.50969        2.68336       -0.00563
