42
anti_S_S_benz_benz.log	Energy: -1126543.8649032
C         -3.61237        1.04718       -0.00019
C         -4.62521        0.08508       -0.00043
C         -6.00322        0.44825       -0.00090
C         -6.97752       -0.51037       -0.00114
C         -8.42791       -0.34255       -0.00162
C         -9.16566        0.84234       -0.00195
C        -10.55274        0.78992       -0.00239
C         -9.10580       -1.57162       -0.00173
C        -10.49618       -1.63252       -0.00217
C        -11.21311       -0.44175       -0.00250
C         -6.60586       -1.89959       -0.00090
S         -8.01585       -2.96012       -0.00126
C         -5.30166       -2.29406       -0.00044
C         -4.26830       -1.30916       -0.00019
C         -2.91781       -1.66203        0.00028
C         -1.90498       -0.69995        0.00052
C         -0.52696       -1.06312        0.00101
C          0.44734       -0.10451        0.00123
C          1.89773       -0.27233        0.00173
C          2.63550       -1.45720        0.00209
C          4.02258       -1.40478        0.00255
C          2.57562        0.95676        0.00185
C          3.96599        1.01767        0.00231
C          4.68294       -0.17310        0.00265
C          0.07568        1.28470        0.00098
S          1.48567        2.34524        0.00135
C         -1.22852        1.67920        0.00052
C         -2.26188        0.69430        0.00028
H         -3.88424        2.10044       -0.00037
H         -6.26473        1.50342       -0.00107
H         -8.65516        1.80121       -0.00187
H        -11.12752        1.71061       -0.00266
H        -11.01123       -2.58798       -0.00225
H        -12.29836       -0.47235       -0.00284
H         -5.02870       -3.34549       -0.00026
H         -2.64595       -2.71530        0.00046
H         -0.26547       -2.11829        0.00119
H          2.12500       -2.41607        0.00200
H          4.59736       -2.32546        0.00282
H          4.48103        1.97313        0.00239
H          5.76818       -0.14248        0.00302
H         -1.50147        2.73063        0.00034
