38
anti_S_O_2-CN_m-CNbenz.log	Energy: -943200.9394819
C         -2.82870       -1.80425       -0.22435
C         -1.77056       -0.91738       -0.02556
C         -0.42141       -1.30438       -0.29399
C          0.58337       -0.40633       -0.08582
C          2.02944       -0.42569       -0.23732
C          2.96186       -1.37072       -0.65578
C          4.30549       -1.02137       -0.67026
C          2.46130        0.84743        0.15733
C          3.78871        1.22746        0.15501
C          4.71094        0.26309       -0.26912
C          6.10857        0.59618       -0.29478
N          7.23661        0.86159       -0.31675
C          0.28155        0.90831        0.39666
O          1.42561        1.65323        0.53829
C         -0.97387        1.33736        0.67006
C         -2.04908        0.41518        0.46068
C         -3.37043        0.77410        0.71670
C         -4.43296       -0.11601        0.51728
C         -5.77676        0.25929        0.78130
C         -6.79831       -0.63501        0.57653
C         -8.21261       -0.44827        0.78322
C         -8.93647       -1.55139        0.47737
C        -10.35048       -1.67376        0.57825
N        -11.50278       -1.77678        0.65934
C         -6.50563       -1.95726        0.09249
S         -7.96907       -2.91239       -0.08883
C         -5.22775       -2.35764       -0.17364
C         -4.15482       -1.44391        0.03274
H         -2.61552       -2.80601       -0.59011
H         -0.21808       -2.30706       -0.65923
H          2.64914       -2.36249       -0.96555
H          5.05505       -1.73587       -0.99113
H          4.10145        2.21743        0.46414
H         -1.16756        2.34019        1.03451
H         -3.58472        1.77536        1.08263
H         -5.98763        1.26065        1.14687
H         -8.65618        0.47173        1.14430
H         -5.01028       -3.35694       -0.53910
