46
anti_O_O_m-CF3benz_m-CNbenz.log	Energy: -990497.2177430
C         -3.54617        0.19178       -1.22572
C         -4.65005       -0.18062       -0.45365
C         -5.98278        0.05574       -0.90708
C         -7.03202       -0.32406       -0.12116
C         -8.47992       -0.25577       -0.23311
C         -9.37131        0.22519       -1.18812
C        -10.73376        0.11674       -0.94429
C         -8.97129       -0.83456        0.94484
C        -10.31910       -0.95793        1.21843
C        -11.19924       -0.46838        0.24583
C        -12.61498       -0.56696        0.47067
N        -13.75766       -0.64491        0.64878
C         -6.78995       -0.95145        1.14182
O         -7.97099       -1.25420        1.77448
C         -5.55023       -1.20344        1.62844
C         -4.43266       -0.81519        0.82413
C         -3.12173       -1.03663        1.24787
C         -2.01803       -0.66417        0.47599
C         -0.68480       -0.90011        0.92962
C          0.36434       -0.52024        0.14439
C          1.81299       -0.58680        0.25593
C          2.70778       -1.06854        1.20745
C          4.06923       -0.95861        0.95651
C          2.30360       -0.00883       -0.92011
C          3.65295        0.11301       -1.19557
C          4.52998       -0.37526       -0.23012
C          6.01474       -0.22531       -0.43334
F          6.68591       -1.30155        0.01004
F          6.33264       -0.05528       -1.72647
F          6.49516        0.83752        0.23616
C          0.12232        0.10698       -1.11936
O          1.30184        0.40979       -1.75164
C         -1.11774        0.35864       -1.60589
C         -2.23542       -0.02966       -0.80185
H         -3.71490        0.66968       -2.18793
H         -6.14089        0.53375       -1.86977
H         -9.01222        0.67697       -2.10701
H        -11.45210        0.48236       -1.66934
H        -10.67783       -1.40887        2.13576
H         -5.40119       -1.68112        2.59063
H         -2.95293       -1.51446        2.21008
H         -0.52681       -1.37780        1.89247
H          2.35209       -1.52407        2.12598
H          4.78583       -1.33170        1.67968
H          4.00466        0.56104       -2.11661
H         -1.26676        0.83627       -2.56814
