51
anti_C_NPh_p-CNbenz_2-F.log	Energy: -878784.1607711
C          0.86961        2.37100       -0.70087
C         -0.14664        1.43244       -0.50823
C         -1.51934        1.77876       -0.67128
C         -2.49070        0.83544       -0.47064
C         -3.93174        0.85826       -0.56594
C         -4.33064       -0.39530       -0.26020
F         -5.55585       -0.88102       -0.19705
C         -2.11075       -0.50560       -0.09241
N         -3.28402       -1.25108        0.03005
C         -3.39597       -2.60393        0.44296
C         -2.77748       -3.01668        1.62289
C         -2.86989       -4.34635        2.01878
C         -3.59526       -5.25690        1.25505
C         -4.22256       -4.83510        0.08591
C         -4.11645       -3.51268       -0.33035
C         -0.81212       -0.89157        0.06235
C          0.21165        0.07988       -0.14076
C          1.56061       -0.24763        0.00751
C          2.57421        0.69495       -0.18691
C          3.94604        0.36421       -0.03553
C          4.94988        1.28571       -0.22365
C          6.37611        0.96173       -0.07030
C          6.82156       -0.31880        0.28347
C          8.17643       -0.59682        0.42156
C          8.59345       -1.92195        0.78629
N          8.93005       -2.99158        1.08113
C          7.34548        1.97011       -0.28410
C          8.71175        1.67039       -0.14019
C          9.13589        0.40693        0.20781
C          4.58607        2.63634       -0.58934
C          5.62777        3.61792       -0.79243
C          6.92965        3.30644       -0.64952
C          3.26164        2.97812       -0.74132
C          2.21856        2.03899       -0.54983
H          0.60308        3.38890       -0.97693
H         -1.77905        2.79346       -0.95977
H         -4.57014        1.68891       -0.82237
H         -2.23531       -2.29388        2.22426
H         -2.38400       -4.66717        2.93498
H         -3.67200       -6.29262        1.57060
H         -4.78819       -5.54081       -0.51444
H         -4.58516       -3.18237       -1.25107
H         -0.54539       -1.90975        0.32733
H          1.82974       -1.26531        0.28214
H          4.17566       -0.66072        0.23876
H          6.11599       -1.12238        0.45788
H          9.44129        2.45758       -0.30860
H         10.19076        0.18048        0.31783
H          5.32930        4.62620       -1.06706
H          7.69965        4.05663       -0.80620
H          3.00283        3.99822       -1.01675
