41
anti_O_O_diCN_m-CF3benz.log	Energy: -951963.1171993
C         -2.77348       -1.97898        0.32643
C         -1.73456       -1.05029        0.27523
C         -0.38084       -1.46545        0.07888
C          0.60455       -0.52459        0.03515
C          2.04805       -0.55105       -0.14117
C          2.99977       -1.54928       -0.33190
C          4.33245       -1.18118       -0.45971
C          2.45435        0.78612       -0.08353
C          3.77360        1.18074       -0.20761
C          4.70846        0.16647       -0.39758
C          6.15949        0.51995       -0.59599
F          6.96863       -0.34334        0.04042
F          6.49650        0.48501       -1.89708
F          6.44546        1.75089       -0.14430
C          0.27893        0.86333        0.18529
O          1.40454        1.64171        0.11196
C         -0.98199        1.32162        0.37366
C         -2.03704        0.35509        0.42383
C         -3.36166        0.74024        0.61445
C         -4.40774       -0.18986        0.66658
C         -5.75298        0.23058        0.86279
C         -6.73565       -0.72050        0.90569
C         -8.17422       -0.69611        1.08155
C         -8.99349        0.44738        1.27212
N         -9.63015        1.40363        1.42556
C         -8.57877       -1.99573        1.02626
C         -9.88416       -2.54746        1.13976
N        -10.95480       -2.97944        1.23451
C         -6.41244       -2.09843        0.75634
O         -7.55253       -2.86075        0.83306
C         -5.15123       -2.56357        0.56671
C         -4.10446       -1.59525        0.51770
H         -2.54183       -3.03543        0.21402
H         -0.15936       -2.52310       -0.03238
H          2.70997       -2.59412       -0.37701
H          5.09346       -1.94015       -0.60328
H          4.06027        2.22365       -0.15489
H         -1.19437        2.37940        0.48363
H         -3.59377        1.79644        0.72669
H         -5.98352        1.28570        0.97494
H         -4.94038       -3.62146        0.45648
