68
anti_NPh_NPh_p-CF3benz_m-CNbenz.log	Energy: -1255465.0153362
C         -2.80536        1.17050       -1.54467
C         -4.01732        1.02044       -0.86496
C         -5.26153        1.32962       -1.48781
C         -6.42602        1.16711       -0.79350
C         -7.82183        1.39628       -1.12512
C         -8.46494        1.84660       -2.27352
C         -9.84920        1.94507       -2.28161
C         -8.57365        1.04960        0.01723
C         -9.96002        1.12931        0.02599
C        -10.58396        1.58489       -1.13956
C        -12.01712        1.68601       -1.16651
N        -13.17329        1.76964       -1.18814
C         -6.40364        0.68261        0.56102
N         -7.71852        0.62268        1.02694
C         -8.11641        0.18676        2.31568
C         -8.85984        1.03296        3.13819
C         -9.26103        0.59463        4.39586
C         -8.90234       -0.67402        4.84336
C         -8.14850       -1.51072        4.02417
C         -7.76309       -1.08865        2.75646
C         -5.23820        0.38434        1.20461
C         -4.00901        0.54649        0.49777
C         -2.78037        0.25685        1.09531
C         -1.56902        0.40865        0.41647
C         -0.32283        0.11366        1.04482
C          0.84061        0.27004        0.34934
C          2.24067        0.07555        0.68967
C          2.88379       -0.35919        1.84082
C          4.27117       -0.45760        1.83578
C          5.00696       -0.86810        3.07768
F          4.21159       -1.51275        3.94890
F          6.04123       -1.68307        2.79896
F          5.52127        0.19335        3.72908
C          2.99107        0.41427       -0.45373
C          4.38064        0.30748       -0.46869
C          5.00666       -0.12938        0.68934
C          0.81562        0.72774       -1.01481
N          2.13293        0.80536       -1.47413
C          2.52669        1.21655       -2.77175
C          3.40146        2.29193       -2.92591
C          3.79505        2.68370       -4.20116
C          3.30094        2.02158       -5.32191
C          2.41779        0.95644       -5.16414
C          2.03681        0.54452       -3.89172
C         -0.34810        1.03481       -1.65623
C         -1.57782        0.87795       -0.94797
H         -2.82009        1.52796       -2.57208
H         -5.26554        1.69664       -2.51092
H         -7.89263        2.11596       -3.15580
H        -10.37360        2.29530       -3.16342
H        -10.54497        0.84789        0.89414
H         -9.11303        2.02975        2.79014
H         -9.84471        1.25279        5.03188
H         -9.20988       -1.01028        5.82854
H         -7.87033       -2.50267        4.36654
H         -7.19440       -1.74062        2.10076
H         -5.22623        0.03518        2.23228
H         -2.76538       -0.09774        2.12363
H         -0.31738       -0.22911        2.07625
H          2.31674       -0.62482        2.72652
H          4.95492        0.54831       -1.35647
H          6.08717       -0.22700        0.70553
H          3.76113        2.81728       -2.04648
H          4.47932        3.51834       -4.31834
H          3.60306        2.33515       -6.31624
H          2.03315        0.43373       -6.03447
H          1.36608       -0.29818       -3.75610
H         -0.35855        1.39610       -2.67977
