47
anti_C_O_diOMe_tetClbenz.log	Energy: -1923424.0626042
C         -2.55599       -1.59175       -0.66029
C         -1.46695       -0.82083       -0.27023
C         -0.18194       -1.00632       -0.87330
C          0.86360       -0.23155       -0.46600
C          2.27276       -0.11268       -0.81503
C          3.13094       -0.74254       -1.70897
Cl         2.52452       -2.00169       -2.73073
C          4.47294       -0.34897       -1.76984
Cl         5.54854       -1.12640       -2.87903
C          2.77306        0.90328        0.00527
C          4.09376        1.31781       -0.02800
Cl         4.61714        2.58032        1.02382
C          4.94960        0.67692       -0.93177
Cl         6.60563        1.15921       -1.01012
C          0.66018        0.75388        0.55648
O          1.83017        1.42859        0.82532
C         -0.52403        0.98110        1.16673
C         -1.64385        0.18178        0.76064
C         -2.89745        0.34660        1.33389
C         -4.00148       -0.43167        0.94330
C         -5.27526       -0.26473        1.52390
C         -6.35313       -1.03763        1.12779
C         -7.65315       -0.87570        1.72674
O         -7.78116        0.05391        2.72822
C         -7.83329       -0.53132        4.02332
C         -8.71121       -1.63494        1.30885
O         -9.96966       -1.54679        1.82279
C        -10.54434       -0.25068        1.93264
C         -6.17990       -2.03787        0.10201
C         -7.31355       -2.83240       -0.27922
C         -8.52456       -2.63311        0.29679
C         -4.93348       -2.20656       -0.47436
C         -3.82518       -1.42748       -0.08258
H         -2.42259       -2.34374       -1.43475
H         -0.06316       -1.75987       -1.64359
H         -0.63246        1.73790        1.93572
H         -3.03341        1.09898        2.10710
H         -5.42004        0.49117        2.28915
H         -8.71334       -1.17710        4.12910
H         -7.89574        0.29482        4.73417
H         -6.92768       -1.11793        4.22026
H        -11.62341       -0.40655        1.98724
H        -10.30357        0.35483        1.05199
H        -10.20124        0.27673        2.82660
H         -7.18533       -3.59024       -1.04676
H         -9.39433       -3.21678        0.01363
H         -4.80101       -2.95812       -1.24947
