52
anti_C_O_p-CF3benz_p-OMebenz.log	Energy: -1005859.8965497
C         -2.76504       -1.83153        0.02796
C         -1.67377       -0.99865       -0.20999
C         -0.34929       -1.38444        0.16853
C          0.69051       -0.54065       -0.08201
C          2.12735       -0.57923        0.14741
C          2.99800       -1.49770        0.71382
C          4.35926       -1.18463        0.76420
O          5.15337       -2.13152        1.33292
C          6.53658       -1.87867        1.41468
C          2.61640        0.63091       -0.35859
C          3.95479        0.95906       -0.31871
C          4.83005        0.03252        0.25218
C          0.45252        0.72234       -0.72011
O          1.61860        1.41991       -0.88195
C         -0.77670        1.14608       -1.10288
C         -1.88939        0.27987       -0.85235
C         -3.18479        0.64127       -1.21500
C         -4.28105       -0.19722       -0.97525
C         -5.59973        0.16960       -1.34426
C         -6.68325       -0.64824       -1.11273
C         -8.05640       -0.28447       -1.48924
C         -8.36706        0.93319       -2.11696
C         -9.66706        1.24987       -2.45829
C         -9.98883        2.54505       -3.15003
F         -8.92946        3.36705       -3.22413
F        -10.41976        2.33603       -4.40778
F        -10.96963        3.21066       -2.51331
C         -9.11154       -1.18262       -1.21538
C        -10.42875       -0.84120       -1.57199
C        -10.71293        0.35810       -2.18618
C         -6.45947       -1.92296       -0.47060
C         -7.58443       -2.79534       -0.21893
C         -8.83662       -2.44774       -0.56965
C         -5.18562       -2.29748       -0.10446
C         -4.06564       -1.46503       -0.33790
H         -2.60255       -2.79259        0.51095
H         -0.19329       -2.34560        0.65055
H          2.65737       -2.44564        1.11635
H          6.97397       -2.75377        1.89672
H          6.75007       -0.98881        2.02142
H          6.98452       -1.75374        0.42006
H          4.31595        1.90105       -0.71541
H          5.88527        0.27505        0.29126
H         -0.92325        2.10734       -1.58342
H         -3.35002        1.60164       -1.69806
H         -5.72559        1.13495       -1.82409
H         -7.58708        1.64936       -2.34244
H        -11.22964       -1.54217       -1.35344
H        -11.73227        0.61478       -2.45536
H         -7.39063       -3.74862        0.26559
H         -9.67208       -3.11416       -0.37381
H         -5.03115       -3.26007        0.37822
