43
anti_C_S_2-OMe_diCF3.log	Energy: -1227199.5193266
C         -2.75906        0.36912        1.69312
C         -3.93032        0.14395        0.97184
C         -5.19315        0.59092        1.45264
C         -6.33061        0.35803        0.72469
C         -7.70620        0.72303        1.02458
C         -8.02679        1.46784        2.28894
F         -7.61563        0.76852        3.36226
F         -7.37668        2.64500        2.31798
F         -9.32627        1.72174        2.44915
C         -8.57444        0.32626        0.06617
C        -10.07181        0.51301        0.00163
F        -10.69370       -0.08590        1.02183
F        -10.41303        1.80524        0.00304
F        -10.55210       -0.02676       -1.13238
C         -6.24134       -0.34112       -0.52759
S         -7.82067       -0.51697       -1.27078
C         -5.05443       -0.78820       -1.02696
C         -3.85505       -0.55832       -0.28886
C         -2.61649       -0.99335       -0.75311
C         -1.43625       -0.76850       -0.02991
C         -0.17537       -1.20622       -0.49305
C          0.98441       -0.98064        0.22592
C          2.26773       -1.42573       -0.24440
C          3.39046       -1.18586        0.49061
O          4.64820       -1.55318        0.15527
C          4.82461       -2.24660       -1.06037
C          0.90368       -0.27733        1.48607
C          2.12211       -0.05265        2.21859
C          3.31291       -0.48571        1.74550
C         -0.32020        0.15716        1.95320
C         -1.51250       -0.06729        1.22803
H         -2.81453        0.89766        2.64210
H         -5.23577        1.11555        2.40107
H         -5.00107       -1.31565       -1.97483
H         -2.56120       -1.52190       -1.70203
H         -0.12255       -1.73476       -1.44220
H          2.30709       -1.95156       -1.19183
H          5.89313       -2.44732       -1.14219
H          4.49963       -1.63947       -1.91486
H          4.27281       -3.19522       -1.06030
H          2.06726        0.47569        3.16646
H          4.23825       -0.32269        2.28781
H         -0.37471        0.68594        2.90230
