48
anti_S_O_m-OMebenz_diOMe.log	Energy: -1043004.6703898
C         -3.78552       -0.02382       -1.33591
C         -4.83997       -0.40604       -0.50097
C         -6.19624       -0.35472       -0.94451
C         -7.19063       -0.74380       -0.09019
C         -8.63262       -0.83213       -0.15811
O         -9.41425       -0.49973       -1.22750
C         -9.36598       -1.45863       -2.27364
C         -9.03963       -1.28747        1.05879
O        -10.20804       -1.55765        1.62037
C        -11.36753       -1.34201        0.82322
C         -6.86198       -1.17857        1.22899
O         -8.00544       -1.49813        1.91756
C         -5.59877       -1.24915        1.71233
C         -4.53632       -0.85909        0.83668
C         -3.20410       -0.90314        1.25108
C         -2.15394       -0.52163        0.41280
C         -0.79546       -0.56878        0.84184
C          0.21574       -0.18948        0.00358
C          1.65303       -0.16371        0.24739
C          2.35636       -0.52159        1.40286
C          3.73343       -0.42550        1.43758
C          2.37769        0.28958       -0.86048
C          3.76761        0.39513       -0.84939
C          4.44318        0.03228        0.31432
O          5.78922        0.08580        0.46193
C          6.56013        0.53886       -0.62835
C         -0.10139        0.26115       -1.32522
S          1.34829        0.69972       -2.23374
C         -1.38391        0.32325       -1.77907
C         -2.45472       -0.06855       -0.91885
H         -4.01136        0.31958       -2.34319
H         -6.41968        0.00130       -1.94602
H         -9.78467       -2.41925       -1.94464
H         -8.33804       -1.62294       -2.61806
H         -9.96583       -1.05782       -3.09284
H        -11.41656       -0.30687        0.47692
H        -12.21189       -1.56520        1.47469
H        -11.37672       -2.01567       -0.03960
H         -5.39147       -1.58300        2.72349
H         -2.97684       -1.24450        2.25872
H         -0.57874       -0.91244        1.85033
H          1.82041       -0.87677        2.27837
H          4.29618       -0.69790        2.32362
H          4.29462        0.75046       -1.72679
H          7.59850        0.50399       -0.29724
H          6.30180        1.56984       -0.90221
H          6.43752       -0.11060       -1.50462
H         -1.61284        0.66554       -2.78440
