48
anti_S_S_m-CF3benz_m-CF3benz.log	Energy: -1549427.5138602
C         -3.57296        0.22025       -1.27622
C         -4.60137       -0.12144       -0.39467
C         -5.97167        0.07064       -0.73442
C         -6.96094       -0.27139        0.14469
C         -8.40661       -0.15443       -0.01487
C         -9.12471        0.33926       -1.10581
C        -10.50875        0.37022       -1.06259
C         -9.10379       -0.61324        1.11324
C        -10.49310       -0.58754        1.16768
C        -11.18631       -0.09182        0.07080
C        -12.69150       -0.09081        0.06652
F        -13.17983       -1.10107       -0.67492
F        -13.20236       -0.22159        1.30095
F        -13.18137        1.04671       -0.45568
C         -6.61511       -0.82975        1.42381
S         -8.04235       -1.19558        2.39427
C         -5.31888       -1.03159        1.79164
C         -4.26977       -0.68169        0.88913
C         -2.92654       -0.86877        1.21908
C         -1.89813       -0.52707        0.33753
C         -0.52783       -0.71915        0.67728
C          0.46143       -0.37710       -0.20182
C          1.90711       -0.49408       -0.04228
C          2.62522       -0.98776        1.04868
C          4.00925       -1.01875        1.00542
C          2.60427       -0.03531       -1.17040
C          3.99359       -0.06108       -1.22488
C          4.68680       -0.55679       -0.12802
C          6.19198       -0.55823       -0.12373
F          6.68147       -1.69715        0.39581
F          6.70294       -0.42473       -1.35782
F          6.68059        0.45009        0.62014
C          0.11561        0.18127       -1.48093
S          1.54284        0.54710       -2.45140
C         -1.18063        0.38308       -1.84878
C         -2.22973        0.03318       -0.94626
H         -3.82622        0.64330       -2.24568
H         -6.21455        0.49393       -1.70571
H         -8.60173        0.70127       -1.98573
H        -11.07177        0.75776       -1.90468
H        -11.02691       -0.93995        2.04289
H         -5.06416       -1.45404        2.75931
H         -2.67328       -1.29195        2.18849
H         -0.28496       -1.14254        1.64853
H          2.10224       -1.34973        1.92861
H          4.57228       -1.40626        1.84753
H          4.52740        0.29127       -2.10011
H         -1.43535        0.80541       -2.81650
