54
anti_C_NPh_tetClbenz_3-OMe.log	Energy: -1984052.0682262
C         -2.26412       -1.47138        2.46297
C         -3.22209       -0.65174        1.85707
C         -4.54820       -0.55946        2.36211
C         -5.45505        0.25287        1.73520
C         -6.83533        0.59251        2.00185
O         -7.59697        0.10816        3.02004
C         -8.04179       -1.22348        2.81001
C         -7.22467        1.49324        1.06649
C         -5.07322        1.01813        0.57656
N         -6.17882        1.76536        0.18723
C         -6.24527        2.68911       -0.87960
C         -5.76594        2.34024       -2.14363
C         -5.83899        3.25669       -3.18675
C         -6.40968        4.51058       -2.98525
C         -6.90184        4.84849       -1.72757
C         -6.81179        3.94767       -0.67221
C         -3.80217        0.97800        0.07106
C         -2.84619        0.13095        0.69925
C         -1.53566        0.03830        0.21898
C         -0.58785       -0.79032        0.82137
C          0.73359       -0.90026        0.30900
C          1.67944       -1.73009        0.86782
C          3.05375       -1.89301        0.34462
C          3.45906       -1.60108       -0.97941
Cl         2.30744       -1.33344       -2.26058
C          4.80483       -1.61397       -1.35087
Cl         5.28206       -1.20067       -2.96226
C          4.04409       -2.40555        1.22596
C          5.39818       -2.40711        0.83873
Cl         6.61582       -2.95323        1.95561
C          5.79049       -1.97887       -0.42165
Cl         7.46049       -1.94075       -0.86495
C          1.32484       -2.40709        2.09891
C          2.35913       -3.05864        2.86074
C          3.64832       -2.99335        2.49084
C          0.04638       -2.33641        2.59860
C         -0.96032       -1.55840        1.97533
H         -2.54348       -2.05117        3.33995
H         -4.82390       -1.11832        3.25208
H         -8.60053       -1.50982        3.70276
H         -7.19886       -1.91173        2.67028
H         -8.69601       -1.28220        1.93089
H         -8.18789        1.96342        0.93034
H         -5.35702        1.34843       -2.30689
H         -5.46252        2.98044       -4.16696
H         -6.47179        5.22000       -3.80435
H         -7.34476        5.82544       -1.55980
H         -7.16341        4.22008        0.31833
H         -3.50394        1.58123       -0.78016
H         -1.25091        0.62139       -0.65403
H          0.97201       -0.27998       -0.54236
H          2.08020       -3.55608        3.78542
H          4.41560       -3.43419        3.11308
H         -0.18920       -2.85401        3.52576
