36
anti_S_S_3-OMe_diCN.log	Energy: -1121327.4255372
C         -0.05526        1.62511        0.75358
C         -1.11488        0.74960        0.49670
C         -2.46367        1.13223        0.72479
C         -3.47765        0.24833        0.46207
C         -4.90480        0.43892        0.62438
C         -5.47047        1.65343        1.11085
N         -5.88268        2.66033        1.51062
C         -5.63099       -0.65861        0.26464
C         -7.04653       -0.77720        0.31183
N         -8.19995       -0.88939        0.34437
C         -3.18487       -1.06247       -0.04260
S         -4.65321       -1.99829       -0.29536
C         -1.90376       -1.46968       -0.27548
C         -0.82972       -0.57055       -0.01083
C          0.49930       -0.93788       -0.23178
C          1.55758       -0.06341        0.02491
C          2.91038       -0.44409       -0.20239
C          3.91949        0.43993        0.06100
C          5.34981        0.24590       -0.10217
O          5.77158       -0.94523       -0.57049
C          7.16865       -1.09410       -0.71521
C          6.08063        1.32645        0.25154
C          3.62968        1.75186        0.56571
S          5.10290        2.67684        0.81439
C          2.34755        2.15660        0.79737
C          1.27236        1.25722        0.53257
H         -0.27401        2.61921        1.13598
H         -2.68520        2.12515        1.10707
H         -1.68335       -2.46201       -0.65741
H          0.71787       -1.93205       -0.61423
H          3.13692       -1.43498       -0.58410
H          7.67647       -0.98123        0.25124
H          7.56927       -0.35814       -1.42409
H          7.33316       -2.10051       -1.10004
H          7.15510        1.43802        0.22438
H          2.12628        3.14898        1.17918
