36
anti_S_O_diCF3_diF.log	Energy: -1278467.5261011
C         -0.16152        1.60584        0.26097
C         -1.28612        0.77998        0.21749
C         -2.60351        1.32778        0.15925
C         -3.66903        0.47496        0.11909
C         -5.10176        0.61535        0.05848
F         -5.78081        1.75775        0.02412
C         -5.60755       -0.63085        0.04389
F         -6.84135       -1.05683       -0.00539
C         -3.45956       -0.94045        0.13524
O         -4.66583       -1.60249        0.08827
C         -2.23832       -1.52176        0.18931
C         -1.10050       -0.65483        0.23261
C          0.19316       -1.16969        0.28982
C          1.31895       -0.33979        0.33356
C          2.63156       -0.87856        0.39233
C          3.71867       -0.04161        0.43537
C          5.13246       -0.37434        0.49857
C          5.56521       -1.81258        0.52394
F          5.12065       -2.45465       -0.57138
F          6.88743       -1.97541        0.57706
F          5.03492       -2.44252        1.58761
C          5.92650        0.72080        0.52955
C          7.43348        0.80319        0.59713
F          7.91363        0.22825        1.70363
F          8.01130        0.22630       -0.46055
F          7.82055        2.09056        0.61339
C          3.52120        1.37880        0.42041
S          5.04945        2.23453        0.48403
C          2.27682        1.93798        0.36393
C          1.13548        1.08853        0.31880
H         -0.29973        2.68437        0.24981
H         -2.74172        2.40407        0.14790
H         -2.11784       -2.59950        0.19995
H          0.33375       -2.24784        0.30119
H          2.75748       -1.95583        0.40277
H          2.13957        3.01521        0.35318
