50
anti_C_NPh_tetClbenz_C.log	Energy: -1912215.1457672
C          0.90074        2.20753       -0.23862
C         -0.16737        1.30951       -0.13855
C         -1.51785        1.75452       -0.17468
C         -2.53941        0.84607       -0.07372
C         -3.97832        0.95821       -0.09701
C         -4.47367       -0.29629        0.03091
C         -2.23813       -0.55616        0.07799
N         -3.45229       -1.23052        0.14568
C         -3.64173       -2.62394        0.29615
C         -2.95151       -3.32407        1.28704
C         -3.14938       -4.69288        1.42931
C         -4.04875       -5.36435        0.60514
C         -4.74599       -4.65973       -0.37218
C         -4.53733       -3.29470       -0.53723
C         -0.95677       -1.03403        0.09681
C          0.11495       -0.10374       -0.00868
C          1.44758       -0.52763        0.01320
C          2.50841        0.37473       -0.07815
C          3.86011       -0.06201       -0.02709
C          4.92448        0.80942       -0.08624
C          6.34241        0.39453       -0.00727
C          6.80427       -0.81843        0.55688
Cl         5.78064       -1.82775        1.54320
C          8.13640       -1.21889        0.43747
Cl         8.66712       -2.73264        1.08731
C          7.32564        1.28819       -0.51246
C          8.66445        0.86761       -0.63146
Cl         9.84642        1.93434       -1.33406
C          9.06917       -0.38804       -0.20101
Cl        10.70542       -0.90818       -0.39892
C          4.62650        2.20498       -0.33746
C          5.70330        3.09895       -0.67771
C          6.96048        2.65387       -0.83442
C          3.32773        2.65412       -0.36597
C          2.22680        1.77577       -0.21235
H          0.68993        3.26945       -0.34467
H         -1.72424        2.81509       -0.29063
H         -4.55516        1.86686       -0.18717
H         -5.50049       -0.63207        0.08023
H         -2.27811       -2.79014        1.94970
H         -2.60876       -5.23321        2.20034
H         -4.20573       -6.43167        0.72449
H         -5.44543       -5.17625       -1.02234
H         -5.05309       -2.74715       -1.32031
H         -0.74014       -2.09417        0.18016
H          1.66231       -1.58918        0.11471
H          4.01813       -1.12802        0.04335
H          5.46461        4.14139       -0.86918
H          7.74111        3.33123       -1.15381
H          3.13580        3.70720       -0.55894
