54
anti_C_NPh_2-OMe_benz.log	Energy: -830517.7754111
C         -2.45275       -2.03160       -0.26364
C         -1.49012       -1.02916       -0.22585
C         -0.14292       -1.27227       -0.63941
C          0.77563       -0.26821       -0.58747
C          2.18519       -0.18564       -0.93827
C          3.09780       -1.11196       -1.43226
C          4.41237       -0.71366       -1.65151
C          2.59651        1.13418       -0.67250
C          3.91180        1.54031       -0.87672
C          4.80864        0.59781       -1.37131
C          0.39518        1.04057       -0.11250
N          1.51660        1.86787       -0.17553
C          1.55054        3.23194        0.19857
C          1.16041        3.61227        1.48336
C          1.18517        4.95498        1.84436
C          1.61800        5.91850        0.93690
C          2.01626        5.53502       -0.34099
C          1.97290        4.19667       -0.71687
C         -0.87731        1.32875        0.28120
C         -1.86191        0.29157        0.23725
C         -3.17663        0.52030        0.63000
C         -4.15289       -0.48894        0.59294
C         -5.48811       -0.26074        0.99095
C         -6.44398       -1.26114        0.95156
C         -7.80387       -1.02946        1.35658
C         -8.71920       -2.03829        1.30450
O        -10.02381       -1.94171        1.65800
C        -10.48152       -0.69242        2.12288
C         -6.06481       -2.57558        0.49037
C         -7.07264       -3.60106        0.45675
C         -8.34419       -3.34823        0.84548
C         -4.76147       -2.81466        0.09742
C         -3.77917       -1.80209        0.13349
H         -2.17155       -3.02340       -0.61190
H          0.12843       -2.26227       -0.99711
H          2.78697       -2.13198       -1.63966
H          5.13610       -1.42413       -2.03787
H          4.22977        2.55297       -0.65259
H          5.84060        0.89132       -1.53964
H          0.84557        2.85126        2.19049
H          0.87773        5.24677        2.84397
H          1.64430        6.96493        1.22459
H          2.34914        6.28179       -1.05541
H          2.25745        3.89102       -1.71895
H         -1.16041        2.32050        0.61942
H         -3.45991        1.51171        0.97693
H         -5.76736        0.73210        1.33728
H         -8.06870       -0.03538        1.69967
H        -11.53948       -0.82305        2.35286
H        -10.36735        0.08448        1.35586
H         -9.94550       -0.38401        3.02980
H         -6.79212       -4.59222        0.11027
H         -9.11297       -4.11350        0.82452
H         -4.48079       -3.80712       -0.24947
