62
anti_NPh_NPh_2-OMe_diCF3.log	Energy: -1288106.8946177
C          0.81808       -0.47833        1.21150
C          2.11695       -0.07764        0.86654
C          3.13351        0.03810        1.84923
C          4.39663        0.43690        1.47842
C          5.64326        0.65022        2.18346
C          5.86490        0.46930        3.65052
F          4.81599       -0.15234        4.22106
F          6.94821       -0.28160        3.91311
F          6.02316        1.63544        4.29882
C          6.56065        1.06429        1.25831
C          8.00543        1.43520        1.44905
F          8.28604        1.68700        2.72725
F          8.82207        0.44865        1.03809
F          8.31803        2.53271        0.74353
C          4.66256        0.73217        0.10201
N          5.99730        1.10973       -0.00128
C          6.62812        1.43573       -1.23887
C          6.26328        2.60801       -1.89642
C          6.84391        2.91452       -3.12182
C          7.78949        2.05770       -3.68051
C          8.14782        0.88763       -3.01714
C          7.56018        0.56646       -1.79783
C          3.71933        0.62471       -0.88358
C          2.41055        0.21409       -0.51692
C          1.38864        0.08354       -1.46566
C          0.09833       -0.31647       -1.12019
C         -0.93042       -0.45096       -2.10019
C         -2.18661       -0.84235       -1.72533
C         -3.41119       -1.08059       -2.44847
C         -4.33243       -1.47060       -1.52319
O         -5.61953       -1.80283       -1.63412
C         -6.15188       -1.72467       -2.94475
C         -2.46050       -1.11539       -0.33354
N         -3.79767       -1.50415       -0.24242
C         -4.50254       -1.80123        0.95163
C         -4.48831       -0.88654        2.00469
C         -5.15630       -1.18473        3.18743
C         -5.85591       -2.38151        3.31508
C         -5.87784       -3.28556        2.25623
C         -5.19428       -3.00511        1.07858
C         -1.51314       -1.01552        0.63934
C         -0.19595       -0.60545        0.26641
H          0.59867       -0.69811        2.25422
H          2.89811       -0.19120        2.88147
H          5.53317        3.26874       -1.43991
H          6.56344        3.82816       -3.63642
H          8.24645        2.30221       -4.63443
H          8.88106        0.21610       -3.45248
H          7.82091       -0.34729       -1.27557
H          3.95343        0.84424       -1.92058
H          1.61042        0.30114       -2.50836
H         -0.69827       -0.24402       -3.14146
H         -3.56641       -0.97214       -3.51075
H         -7.19963       -2.01235       -2.86350
H         -5.62629       -2.41230       -3.61736
H         -6.07339       -0.70271       -3.33263
H         -3.95762        0.05308        1.88803
H         -5.13899       -0.47237        4.00661
H         -6.38243       -2.60912        4.23678
H         -6.41966       -4.22170        2.35046
H         -5.19355       -3.71053        0.25510
H         -1.73195       -1.24320        1.67794
