39
anti_C_O_diF_tetClbenz.log	Energy: -1904247.0992923
C         -2.89690       -1.75949       -0.17450
C         -1.83070       -0.87815       -0.04625
C         -0.48245       -1.32487       -0.23082
C          0.53863       -0.43199       -0.09714
C          1.99078       -0.48408       -0.20040
C          2.93154       -1.46914       -0.47832
Cl         2.40395       -3.08525       -0.80441
C          4.29162       -1.13875       -0.49005
Cl         5.46997       -2.35709       -0.83368
C          2.42746        0.81790        0.06136
C          3.76369        1.18054        0.05799
Cl         4.20463        2.81328        0.39316
C          4.70305        0.18100       -0.22276
Cl         6.38137        0.58407       -0.23781
C          0.24846        0.93612        0.22514
O          1.40636        1.67353        0.31583
C         -0.99780        1.42396        0.41237
C         -2.09472        0.50929        0.27858
C         -3.40752        0.92388        0.45366
C         -4.49004        0.03540        0.32481
C         -5.82320        0.45516        0.50232
C         -6.87337       -0.43638        0.37093
C         -8.23472       -0.03200        0.54704
F         -8.48427        1.24818        0.84683
C         -9.25424       -0.91718        0.41558
F        -10.51965       -0.51995        0.58427
C         -6.62009       -1.82052        0.04773
C         -7.73289       -2.71912       -0.08096
C         -9.00683       -2.28299        0.09682
C         -5.31095       -2.23578       -0.12736
C         -4.22741       -1.34396        0.00199
H         -2.69798       -2.80056       -0.41813
H         -0.29845       -2.36528       -0.47338
H         -1.17086        2.46648        0.65502
H         -3.60844        1.96418        0.69751
H         -6.02697        1.49283        0.74562
H         -7.53766       -3.75902       -0.32408
H         -9.86064       -2.94519        0.00429
H         -5.11016       -3.27646       -0.37096
