49
anti_O_NPh_3-CN_p-CNbenz.log	Energy: -873012.6981340
C         -2.79305       -1.82453        0.19120
C         -1.75259       -0.89638        0.13534
C         -0.39414       -1.31170       -0.00210
C          0.59640       -0.37580       -0.05052
C          2.04160       -0.45725       -0.19237
C          2.92136       -1.52086       -0.31298
C          4.28984       -1.25156       -0.41974
C          5.22129       -2.33479       -0.54840
N          5.97407       -3.21083       -0.65288
C          2.52882        0.86730       -0.18346
C          3.89195        1.14454       -0.27841
C          4.76281        0.07294       -0.39810
C          0.27765        1.02498        0.03943
N          1.46870        1.75029       -0.04493
C          1.57244        3.16445        0.00360
C          1.09976        3.85585        1.11864
C          1.19420        5.24274        1.15909
C          1.77597        5.93712        0.10135
C          2.25460        5.24164       -1.00585
C          2.14439        3.85624       -1.06347
C         -1.00395        1.47359        0.16056
C         -2.05858        0.51195        0.21413
C         -3.39193        0.90156        0.34176
C         -4.43789       -0.02579        0.39772
C         -5.79300        0.39877        0.52953
C         -6.77620       -0.54816        0.58064
C         -8.22579       -0.52922        0.70685
C         -9.06343        0.61172        0.82077
N         -9.72511        1.55960        0.91262
C         -8.62112       -1.82577        0.69447
C         -6.44526       -1.93103        0.50254
O         -7.59090       -2.69006        0.57436
C         -5.17897       -2.40152        0.37639
C         -4.12870       -1.43524        0.32056
H         -2.55683       -2.88453        0.13165
H         -0.16868       -2.37263       -0.07047
H          2.56559       -2.54599       -0.32256
H          4.26235        2.16331       -0.25481
H          5.82993        0.25227       -0.47456
H          0.66660        3.30174        1.94557
H          0.82322        5.78057        2.02599
H          1.85545        7.01897        0.13969
H          2.70370        5.77902       -1.83525
H          2.49198        3.30548       -1.93219
H         -1.23680        2.53239        0.21241
H         -3.62825        1.96148        0.39988
H         -6.02568        1.45792        0.58727
H         -9.60334       -2.26933        0.76362
H         -4.96371       -3.46298        0.31975
