33
anti_S_O_2-CF3_C.log	Energy: -942532.2430085
C          1.26792       -1.15949        0.22053
C          2.41908       -0.37672        0.09540
C          3.72014       -0.95686        0.17439
C          4.81981       -0.15304        0.04615
C          6.25498       -0.35101        0.06669
C          6.79711        0.86638       -0.12018
C          4.64728        1.25120       -0.16438
O          5.86759        1.85882       -0.26387
C          3.43962        1.86544       -0.24895
C          2.27635        1.04662       -0.11793
C          0.99393        1.59253       -0.19159
C         -0.15533        0.80691       -0.06590
C         -1.45814        1.37246       -0.14231
C         -2.56722        0.57681       -0.01576
C         -3.96260        0.95094       -0.06298
C         -4.78917       -0.09919        0.09949
C         -6.28371       -0.04413        0.09839
F         -6.71785        1.21204       -0.07600
F         -6.80546       -0.79684       -0.88339
F         -6.79592       -0.49728        1.25382
C         -2.41085       -0.83754        0.19526
S         -3.97190       -1.63874        0.32517
C         -1.18074       -1.42182        0.27530
C         -0.01410       -0.61173        0.14634
H          1.37548       -2.22995        0.38085
H          3.81677       -2.02680        0.33496
H          6.78979       -1.27918        0.20306
H          7.82338        1.19775       -0.17672
H          3.35101        2.93456       -0.40939
H          0.88507        2.66279       -0.35185
H         -1.56361        2.44236       -0.30220
H         -4.30882        1.96606       -0.21291
H         -1.06838       -2.49030        0.43496
