49
anti_O_NPh_2-CN_p-CNbenz.log	Energy: -873009.0961669
C         -2.87108       -1.77534        0.19924
C         -1.82171       -0.85833        0.14282
C         -0.46261       -1.28944        0.07331
C          0.53748       -0.36435        0.02176
C          1.98605       -0.46355       -0.06330
C          2.85901       -1.53864       -0.10603
C          4.23308       -1.28558       -0.17360
C          5.15798       -2.38098       -0.22141
N          5.90558       -3.26677       -0.26039
C          2.48558        0.85601       -0.09280
C          3.85388        1.11760       -0.14918
C          4.71792        0.03462       -0.19095
C          0.22918        1.04202        0.04049
N          1.42976        1.75303       -0.03105
C          1.54595        3.16695       -0.03760
C          1.04083        3.90851        1.02998
C          1.14840        5.29496        1.01653
C          1.77496        5.93944       -0.04722
C          2.28554        5.19412       -1.10667
C          2.16292        3.80857       -1.11093
C         -1.05123        1.50554        0.09535
C         -2.11688        0.55524        0.15054
C         -3.44938        0.95941        0.21169
C         -4.50647        0.04236        0.26752
C         -5.85914        0.48089        0.32940
C         -6.86049       -0.45355        0.38341
C         -8.30155       -0.40550        0.45193
C         -8.70926       -1.69448        0.47977
C        -10.02579       -2.23105        0.54620
N        -11.10845       -2.64064        0.60063
C         -6.53559       -1.84413        0.37689
O         -7.67803       -2.59427        0.43643
C         -5.26697       -2.32637        0.31902
C         -4.20821       -1.37200        0.26198
H         -2.64231       -2.83855        0.19343
H         -0.24475       -2.35401        0.05822
H          2.49370       -2.56024       -0.08500
H          4.23333        2.13328       -0.15524
H          5.78883        0.20170       -0.23551
H          0.57291        3.39316        1.86303
H          0.75283        5.87176        1.84674
H          1.86479        7.02115       -0.05059
H          2.76987        5.69237       -1.94065
H          2.53584        3.21901       -1.94288
H         -1.27548        2.56750        0.09378
H         -3.67798        2.02275        0.21593
H         -6.07805        1.54462        0.33276
H         -8.94100        0.46439        0.47664
H         -5.05862       -3.39066        0.31561
