30
anti_S_O_3-F_3-F.log	Energy: -855590.6310661
C         -0.18777        1.43744        0.69700
C         -1.30487        0.64351        0.42192
C         -2.62794        1.15423        0.56714
C         -3.68374        0.33356        0.28438
C         -5.12040        0.45194        0.30088
F         -5.79282        1.54623        0.64592
C         -5.64034       -0.72525       -0.08943
C         -3.46472       -1.00972       -0.14822
O         -4.65729       -1.63989       -0.37118
C         -2.22933       -1.55152       -0.30488
C         -1.10361       -0.72019       -0.01755
C          0.20114       -1.19858       -0.15247
C          1.31590       -0.40264        0.12319
C          2.64139       -0.90012       -0.01772
C          3.70526       -0.08678        0.26266
C          5.11845       -0.37628        0.19062
F          5.54200       -1.58268       -0.19442
C          5.92625        0.63984        0.53314
C          3.50084        1.26508        0.69832
S          5.03618        2.08239        0.98728
C          2.24612        1.77944        0.84586
C          1.11563        0.95689        0.56133
H         -0.34087        2.46239        1.02733
H         -2.78046        2.17725        0.89685
H         -6.65735       -1.06113       -0.21400
H         -2.09343       -2.57576       -0.63511
H          0.35540       -2.22328       -0.48256
H          2.80211       -1.92244       -0.34705
H          7.00678        0.63212        0.54756
H          2.08796        2.80242        1.17540
