51
anti_C_NPh_diF_m-CNbenz.log	Energy: -941039.7292879
C         -2.87561       -1.74245       -0.02299
C         -1.82865       -0.82886       -0.02036
C         -0.46760       -1.25880       -0.10309
C          0.53446       -0.33653       -0.09530
C          1.98222       -0.44009       -0.17450
C          2.85365       -1.51958       -0.26957
C          4.22119       -1.28505       -0.31297
C          2.48688        0.87581       -0.12738
C          3.85092        1.13202       -0.15786
C          4.70823        0.03097       -0.25422
C          6.12693        0.25642       -0.29375
N          7.27147        0.43780       -0.32773
C          0.23046        1.07111       -0.00113
N          1.43264        1.77807       -0.02397
C          1.55957        3.18855        0.04953
C          1.03720        3.87583        1.14500
C          1.15689        5.25976        1.21015
C          1.81373        5.95555        0.19831
C          2.34209        5.26436       -0.88869
C          2.20660        3.88257       -0.97253
C         -1.04836        1.53483        0.06887
C         -2.12126        0.58815        0.06352
C         -3.44829        0.99544        0.13700
C         -4.51085        0.07590        0.13425
C         -5.85652        0.48973        0.20962
C         -6.88716       -0.43305        0.20639
C         -8.26006       -0.03521        0.28247
F         -8.54051        1.27182        0.35873
C         -9.26008       -0.95141        0.27833
F        -10.53700       -0.55886        0.35038
C         -6.60184       -1.84635        0.12489
C         -7.69541       -2.77739        0.12376
C         -8.98108       -2.34584        0.19792
C         -5.28173       -2.25637        0.05049
C         -4.21689       -1.33290        0.05259
H         -2.65225       -2.80525       -0.08592
H         -0.25265       -2.32172       -0.17561
H          2.47182       -2.53509       -0.30687
H          4.92136       -2.10913       -0.38917
H          4.24643        2.13988       -0.10522
H          0.54662        3.32063        1.93843
H          0.74735        5.79385        2.06192
H          1.91380        7.03477        0.25704
H          2.85113        5.80229       -1.68229
H          2.59340        3.33693       -1.82782
H         -1.26914        2.59599        0.12371
H         -3.67438        2.05739        0.19851
H         -6.08454        1.54892        0.27102
H         -7.47570       -3.83890        0.06226
H         -9.82062       -3.03232        0.19846
H         -5.05688       -3.31875       -0.01129
