44
anti_O_NPh_3-CF3_3-F.log	Energy: -934590.3716855
C          0.50233        0.30163       -1.76543
C         -0.80784        0.13125       -1.30280
C         -1.91660        0.15396       -2.19091
C         -3.17979       -0.01368       -1.68920
C         -4.48558       -0.07285       -2.28381
F         -4.72639        0.07191       -3.58844
C         -5.40532       -0.27808       -1.31565
C         -3.39668       -0.20240       -0.27825
N         -4.76463       -0.35075       -0.07778
C         -5.42320       -0.57755        1.15111
C         -6.39947       -1.57081        1.24195
C         -7.06704       -1.77711        2.44411
C         -6.75113       -1.01368        3.56457
C         -5.77159       -0.02855        3.47208
C         -5.11550        0.20162        2.26805
C         -2.35288       -0.25396        0.60599
C         -1.03040       -0.08282        0.10882
C          0.07554       -0.11701        0.96485
C          1.38156        0.05188        0.50323
C          2.49254        0.01405        1.39911
C          3.75111        0.18657        0.89774
C          5.09070        0.21583        1.45199
C          5.46791        0.04731        2.87619
F          5.06020       -1.14019        3.35845
F          6.79835        0.12209        3.04629
F          4.90330        0.98987        3.65216
C          5.92670        0.42918        0.41747
C          3.94214        0.39975       -0.50071
O          5.28223        0.54540       -0.77054
C          2.93290        0.44655       -1.40485
C          1.60239        0.26974       -0.91020
H          0.66539        0.46319       -2.82861
H         -1.75439        0.29437       -3.25535
H         -6.48036       -0.34719       -1.38522
H         -6.61911       -2.18738        0.37558
H         -7.82656       -2.55030        2.50761
H         -7.26663       -1.18442        4.50433
H         -5.52659        0.57932        4.33768
H         -4.37962        0.99441        2.18199
H         -2.50789       -0.43066        1.66524
H         -0.08758       -0.28009        2.02783
H          2.32483       -0.15009        2.45897
H          7.00167        0.52112        0.37741
H          3.11565        0.61052       -2.46130
