36
anti_C_O_2-Cl_3-CF3.log	Energy: -1029636.0976495
C         -2.74285        0.51828        1.27592
C         -3.90432       -0.08687        0.80516
C         -5.19040        0.30375        1.29291
C         -6.29921       -0.31912        0.80005
C         -7.72832       -0.21735        1.02376
C         -8.41777        0.69939        1.96442
F         -8.03406        0.48307        3.23489
F         -8.13720        1.98616        1.69260
F         -9.75106        0.55004        1.90886
C         -8.30614       -1.12314        0.21189
C         -6.16755       -1.34375       -0.18838
O         -7.40930       -1.81956       -0.53164
C         -4.98274       -1.76267       -0.69391
C         -3.79745       -1.12985       -0.19766
C         -2.53824       -1.49632       -0.66053
C         -1.36616       -0.88633       -0.18634
C         -0.08717       -1.25543       -0.65420
C          1.06126       -0.64643       -0.17946
C          2.36489       -1.01927       -0.65338
C          3.46654       -0.39876       -0.16358
Cl         5.05666       -0.84616       -0.73486
C          0.95504        0.39184        0.81835
C          2.16220        1.00824        1.29459
C          3.37909        0.63284        0.82614
C         -0.29278        0.76263        1.28522
C         -1.47198        0.15007        0.80978
H         -2.82196        1.30031        2.02759
H         -5.26715        1.08486        2.04265
H         -9.34278       -1.38196        0.05691
H         -4.92230       -2.54367       -1.44392
H         -2.45697       -2.27805       -1.41215
H         -0.00761       -2.03744       -1.40574
H          2.45377       -1.79865       -1.40328
H          2.08424        1.78969        2.04536
H          4.28992        1.09829        1.18581
H         -0.37302        1.54471        2.03686
