34
anti_O_O_2-F_2-OMe.log	Energy: -662517.5249431
C          1.13168       -1.21995        0.00149
C          2.30925       -0.46843        0.00294
C          3.59267       -1.09665        0.00321
C          4.71928       -0.32217        0.00465
C          6.14529       -0.56839        0.00536
C          6.71734        0.66079        0.00685
O          7.97092        1.08629        0.00807
C          8.94951        0.05916        0.00770
C          4.58551        1.10319        0.00585
O          5.82934        1.68648        0.00719
C          3.40362        1.76307        0.00566
C          2.21061        0.97212        0.00417
C          0.94832        1.56502        0.00388
C         -0.23060        0.81306        0.00244
C         -1.51215        1.44231        0.00218
C         -2.63894        0.66793        0.00075
C         -4.06820        0.91845        0.00006
C         -4.62200       -0.30512       -0.00140
F         -5.87811       -0.67332       -0.00254
C         -2.50573       -0.75656       -0.00044
O         -3.75494       -1.33977       -0.00177
C         -1.32372       -1.41795       -0.00028
C         -0.13239       -0.62694        0.00121
H          1.20231       -2.30557        0.00056
H          3.65286       -2.18128        0.00227
H          6.64949       -1.52201        0.00485
H          9.91515        0.56288        0.00874
H          8.85350       -0.56431       -0.88856
H          8.85243       -0.56597        0.90270
H          3.35226        2.84662        0.00661
H          0.87755        2.65063        0.00482
H         -1.57274        2.52681        0.00312
H         -4.58966        1.86226        0.00057
H         -1.27252       -2.50146       -0.00122
