50
anti_C_NPh_3-F_benz.log	Energy: -820928.4964008
C         -2.98563       -1.66107       -0.02949
C         -1.92206       -0.76710       -0.02652
C         -0.56834       -1.21869       -0.13041
C          0.45104       -0.31639       -0.12155
C          1.89693       -0.44385       -0.22024
C          2.74869       -1.53732       -0.33850
C          4.12133       -1.32021       -0.39314
C          2.42742        0.85865       -0.16230
C          3.79957        1.08682       -0.20450
C          4.63386       -0.02082       -0.32285
C          0.17281        1.09601       -0.00392
N          1.38664        1.78104       -0.03141
C          1.53629        3.18628        0.04854
C          1.00954        3.88207        1.13734
C          1.14835        5.26401        1.20691
C          1.82934        5.95259        0.20630
C          2.36303        5.25424       -0.87361
C          2.20872        3.87482       -0.96165
C         -1.09751        1.58030        0.08485
C         -2.18767        0.65341        0.07886
C         -3.50617        1.08316        0.17213
C         -4.58522        0.18294        0.16923
C         -5.92253        0.61929        0.26496
C         -6.96929       -0.28448        0.26112
C         -8.33953        0.12589        0.35730
F         -8.57155        1.44622        0.45320
C         -9.37464       -0.74594        0.35486
C         -6.71368       -1.70125        0.15809
C         -7.82766       -2.60874        0.15728
C         -9.10231       -2.14760        0.25177
C         -5.40166       -2.13353        0.06375
C         -4.31939       -1.22973        0.06610
H         -2.78191       -2.72681       -0.10877
H         -0.37338       -2.28418       -0.22076
H          2.34570       -2.54507       -0.38382
H          4.79948       -2.16229       -0.48658
H          4.20580        2.09065       -0.14092
H          5.70849        0.13170       -0.35834
H          0.49968        3.33345        1.92308
H          0.73385        5.80224        2.05384
H          1.94319        7.03041        0.26771
H          2.88994        5.78591       -1.66003
H          2.59943        3.32455       -1.81202
H         -1.30075        2.64416        0.15433
H         -3.71267        2.14824        0.24990
H         -6.13048        1.68168        0.34275
H        -10.39107       -0.37657        0.43032
H         -7.62728       -3.67351        0.07932
H         -9.93759       -2.84075        0.25036
H         -5.19605       -3.19885       -0.01444
