41
anti_O_NPh_diCl_diF.log	Energy: -1362173.4404175
C          0.08876        0.01965       -1.61088
C         -1.22865       -0.07068       -1.14835
C         -2.32930       -0.11223       -2.04816
C         -3.60129       -0.19525       -1.54933
C         -4.89949       -0.27093       -2.15628
F         -5.15054       -0.25923       -3.46629
C         -5.80954       -0.35366       -1.16075
F         -7.12345       -0.42833       -1.23495
C         -3.82800       -0.24054       -0.12641
N         -5.20249       -0.34056        0.08725
C         -5.87662       -0.33700        1.33477
C         -6.82405       -1.31982        1.61792
C         -7.48369       -1.30432        2.84176
C         -7.18529       -0.32925        3.78970
C         -6.23223        0.64472        3.50411
C         -5.58500        0.65261        2.27358
C         -2.79919       -0.21869        0.77094
C         -1.46647       -0.12861        0.27507
C         -0.37173       -0.09562        1.14326
C          0.94297       -0.00636        0.68166
C          2.04434        0.02651        1.58891
C          3.30984        0.11563        1.08457
C          4.64068        0.17343        1.64759
Cl         5.04187        0.14211        3.31442
C          5.49152        0.25657        0.60277
Cl         7.18756        0.35520        0.56460
C          3.51876        0.17415       -0.32607
O          4.86369        0.26027       -0.60299
C          2.51862        0.14709       -1.24012
C          1.18020        0.05416       -0.74389
H          0.26586        0.06366       -2.68308
H         -2.15285       -0.08280       -3.11897
H         -7.03668       -2.08949        0.88382
H         -8.22512       -2.06692        3.05871
H         -7.69529       -0.32756        4.74786
H         -6.00066        1.41285        4.23544
H         -4.86127        1.42434        2.03142
H         -2.97484       -0.27405        1.84051
H         -0.54913       -0.14103        2.21548
H          1.86687       -0.01916        2.65923
H          2.71557        0.19336       -2.30566
