48
anti_O_NPh_2-F_p-CNbenz.log	Energy: -877405.2237544
C         -2.93415       -1.72525        0.12427
C         -1.86595       -0.82580        0.08886
C         -0.51457       -1.27859        0.03824
C          0.50243       -0.36957        0.00708
C          1.95034       -0.49137       -0.05643
C          2.80759       -1.57923       -0.09094
C          4.18660       -1.34748       -0.13591
C          5.09491       -2.45693       -0.17473
N          5.82931       -3.35409       -0.20640
C          2.47130        0.82064       -0.07178
C          3.84442        1.06073       -0.10525
C          4.69238       -0.03516       -0.13897
C          0.21577        1.03960        0.02831
N          1.42897        1.73326       -0.02121
C          1.56645        3.14471       -0.02060
C          1.04742        3.89109        1.03706
C          1.17538        5.27582        1.03048
C          1.83598        5.91427       -0.01617
C          2.36026        5.16435       -1.06560
C          2.21755        3.78078       -1.07709
C         -1.05870        1.52306        0.06543
C         -2.13935        0.59035        0.09926
C         -3.46831        1.01629        0.14199
C         -4.53988        0.11908        0.17665
C         -5.89078        0.58024        0.21999
C         -6.90935       -0.33126        0.25335
C         -8.35681       -0.26328        0.29968
C         -8.75161       -1.54735        0.31300
F         -9.95066       -2.06920        0.35159
C         -6.59729       -1.72841        0.24413
O         -7.76197       -2.46438        0.28195
C         -5.34210       -2.23464        0.20377
C         -4.26189       -1.29812        0.16819
H         -2.72369       -2.79245        0.11657
H         -0.31367       -2.34661        0.02091
H          2.42620       -2.59512       -0.08056
H          4.23973        2.07038       -0.09993
H          5.76633        0.11546       -0.16585
H          0.55233        3.38038        1.85712
H          0.76852        5.85590        1.85295
H          1.94138        6.99461       -0.01416
H          2.87097        5.65774       -1.88671
H          2.60077        3.18833       -1.90227
H         -1.26629        2.58845        0.06515
H         -3.67815        2.08360        0.14817
H         -6.08836        1.64811        0.22546
H         -8.99305        0.60702        0.31928
H         -5.15368       -3.30278        0.19804
