36
anti_S_O_diCl_diCF3.log	Energy: -1730747.1877345
C          0.08032        1.40114        0.21027
C         -1.07731        0.61857        0.27814
C         -2.36772        1.22158        0.28769
C         -3.47294        0.41658        0.35910
C         -4.90941        0.62555        0.38775
C         -5.61257        1.94566        0.38040
F         -4.82925        2.88860       -0.17302
F         -6.75025        1.90650       -0.32420
F         -5.91429        2.35792        1.61935
C         -5.45877       -0.60540        0.47956
C         -6.88976       -1.07281        0.52237
F         -7.66277       -0.17612        1.13992
F         -7.37170       -1.26060       -0.71149
F         -6.97862       -2.23030        1.18091
C         -3.31302       -0.99835        0.41554
O         -4.54125       -1.60214        0.48417
C         -2.11482       -1.63572        0.40640
C         -0.94634       -0.81990        0.33596
C          0.33169       -1.38411        0.32257
C          1.48449       -0.59953        0.25517
C          2.78274       -1.18433        0.24231
C          3.89218       -0.38741        0.17571
C          5.29029       -0.77011        0.15141
Cl         5.79477       -2.41686        0.20760
C          6.12858        0.28538        0.08164
Cl         7.83939        0.23725        0.03367
C          3.75145        1.04224        0.11837
S          5.31695        1.84403        0.03829
C          2.52854        1.64287        0.12832
C          1.35429        0.83484        0.19740
H         -0.01894        2.48312        0.16623
H         -2.45541        2.30084        0.24004
H         -2.04080       -2.71657        0.45155
H          0.43160       -2.46589        0.36611
H          2.88370       -2.26481        0.28578
H          2.42720        2.72333        0.08488
