52
anti_C_O_m-CF3benz_m-OMebenz.log	Energy: -1005861.7164401
C         -2.87031       -1.52687        0.53560
C         -1.74154       -0.80552        0.15268
C         -0.45122       -1.09943        0.69756
C          0.62824       -0.37019        0.29659
C          2.04786       -0.36289        0.60599
C          2.89181       -1.09801        1.44036
C          4.24052       -0.79209        1.47151
C          2.59705        0.65820       -0.16986
C          3.94143        0.99502       -0.16694
C          4.76500        0.24500        0.67608
O          6.09810        0.44344        0.79839
C          6.69268        1.46752        0.03143
C          0.45880        0.68117       -0.66541
O          1.65690        1.29290       -0.93717
C         -0.73194        1.01060       -1.21910
C         -1.88409        0.26047       -0.81529
C         -3.14556        0.53568       -1.33600
C         -4.27979       -0.19050       -0.94922
C         -5.56464        0.08898       -1.47763
C         -6.68516       -0.61954       -1.10323
C         -8.02369       -0.34081       -1.64114
C         -8.26737        0.67515       -2.58372
C         -9.53381        0.91629       -3.07293
C         -9.11910       -1.11737       -1.20247
C        -10.40480       -0.86197       -1.70746
C        -10.61344        0.14070       -2.63096
C        -11.98588        0.43907       -3.16479
F        -11.99962        0.43890       -4.51034
F        -12.90195       -0.45182       -2.75386
F        -12.40914        1.65607       -2.77617
C         -6.53573       -1.68403       -0.13780
C         -7.69936       -2.44044        0.26732
C         -8.91931       -2.17444       -0.23461
C         -5.29483       -1.97030        0.38730
C         -4.13805       -1.24822        0.01015
H         -2.76468       -2.32875        1.26300
H         -0.35348       -1.90129        1.42407
H          2.50028       -1.89993        2.05855
H          4.92728       -1.34034        2.10658
H          4.30596        1.79896       -0.79290
H          7.75368        1.45235        0.28208
H          6.27462        2.45056        0.28256
H          6.57132        1.28500       -1.04381
H         -0.82135        1.81266       -1.94382
H         -3.25402        1.33702       -2.06351
H         -5.63421        0.89579       -2.20027
H         -7.45241        1.29150       -2.94539
H         -9.69525        1.70436       -3.80135
H        -11.23756       -1.46633       -1.36273
H         -7.56166       -3.23643        0.99416
H         -9.78542       -2.75089        0.07850
H         -5.19651       -2.77420        1.11357
