35
anti_S_O_diCN_2-CF3.log	Energy: -1058248.7985515
C          0.92655        1.66137        0.00186
C         -0.26651        0.93360       -0.00171
C         -1.53103        1.59310       -0.00203
C         -2.67312        0.84042       -0.00560
C         -4.09272        1.12475       -0.00705
C         -4.69847       -0.07560       -0.01090
C         -6.15103       -0.42992       -0.01429
F         -6.88947        0.68655       -0.01101
F         -6.47562       -1.14613       -1.09743
F         -6.47860       -1.15455        1.06230
C         -2.58220       -0.58682       -0.00896
O         -3.83615       -1.13211       -0.01222
C         -1.41356       -1.27614       -0.00882
C         -0.20670       -0.51222       -0.00510
C          1.04140       -1.13592       -0.00465
C          2.23308       -0.40502       -0.00104
C          3.49816       -1.05143       -0.00058
C          4.64610       -0.30308        0.00300
C          6.02085       -0.76132        0.00408
C          6.37307       -2.14238        0.00139
N          6.60845       -3.27736       -0.00088
C          6.92105        0.26362        0.00798
C          8.33646        0.13377        0.00994
N          9.49229        0.04421        0.01156
C          4.57854        1.13027        0.00627
S          6.18314        1.85104        0.01043
C          3.38449        1.79004        0.00596
C          2.17457        1.03601        0.00230
H          0.87987        2.74778        0.00439
H         -1.56807        2.67835        0.00056
H         -4.57868        2.08845       -0.00538
H         -1.38676       -2.36018       -0.01141
H          1.08993       -2.22199       -0.00717
H          3.54936       -2.13697       -0.00307
H          3.33438        2.87475        0.00844
