54
anti_S_NPh_2-CF3_p-OMebenz.log	Energy: -1243244.8584934
C         -2.70628       -1.92458        0.26187
C         -1.69377       -0.96773        0.19347
C         -0.31910       -1.34374        0.11035
C          0.64457       -0.38191        0.04770
C          2.09490       -0.43324       -0.05617
C          2.99663       -1.48502       -0.10395
C          4.36123       -1.20250       -0.18664
O          5.18331       -2.28776       -0.23404
C          6.57103       -2.06435       -0.30685
C          2.54793        0.89902       -0.09413
C          3.90179        1.18764       -0.16303
C          4.80556        0.12554       -0.21190
C          0.28462        1.01453        0.06995
N          1.45118        1.76846       -0.01571
C          1.51923        3.18074       -0.03311
C          0.93918        3.92064        0.99841
C          0.99989        5.30970        0.97214
C          1.65641        5.96486       -0.06650
C          2.24401        5.22396       -1.08854
C          2.16772        3.83535       -1.08139
C         -1.01614        1.42360        0.13465
C         -2.04301        0.43372        0.20098
C         -3.39081        0.78609        0.27318
C         -4.40778       -0.17281        0.34067
C         -5.77849        0.19667        0.41421
C         -6.75391       -0.76545        0.48088
C         -8.18743       -0.59960        0.56068
C         -8.84580       -1.77304        0.61211
C        -10.32894       -1.94005        0.70257
F        -10.94716       -0.75043        0.70666
F        -10.81153       -2.64781       -0.33150
F        -10.68677       -2.58961        1.82205
C         -6.38736       -2.15532        0.47616
S         -7.80767       -3.19004        0.56900
C         -5.08406       -2.55466        0.40598
C         -4.05650       -1.57014        0.33608
H         -2.43662       -2.97847        0.25632
H         -0.05849       -2.39878        0.09218
H          2.67283       -2.52032       -0.07500
H          7.03428       -3.05153       -0.33344
H          6.94019       -1.51701        0.57080
H          6.84591       -1.51335       -1.21625
H          4.26173        2.21090       -0.17275
H          5.86392        0.35192       -0.26693
H          0.45093        3.40071        1.81673
H          0.54424        5.88100        1.77520
H          1.70970        7.04901       -0.07948
H          2.75221        5.72845       -1.90471
H          2.60016        3.25081       -1.88755
H         -1.28501        2.47507        0.13095
H         -3.66115        1.83974        0.27713
H         -6.04466        1.25052        0.41711
H         -8.68207        0.36370        0.57773
H         -4.81144       -3.60614        0.40219
