56
anti_C_NPh_m-OMebenz_diCN.log	Energy: -946232.9618163
C         -2.71885       -1.20331        2.84291
C         -3.59887       -0.35725        2.15688
C         -4.90243       -0.09251        2.65280
C         -5.73014        0.74029        1.94569
C         -7.07468        1.21801        2.16877
C         -7.91518        0.88973        3.26172
N         -8.57287        0.59843        4.17183
C         -7.38404        2.04602        1.11584
C         -8.60750        2.73645        0.88706
N         -9.60480        3.29997        0.71238
C         -5.28884        1.33537        0.71875
N         -6.32590        2.12974        0.23403
C         -6.30026        2.88231       -0.97462
C         -6.05151        2.22715       -2.17946
C         -6.01611        2.96040       -3.35989
C         -6.24651        4.33386       -3.33831
C         -6.50384        4.97796       -2.13155
C         -6.52034        4.25696       -0.94232
C         -4.03850        1.11998        0.20773
C         -3.16063        0.25897        0.92216
C         -1.86872       -0.00940        0.45522
C         -0.99663       -0.85279        1.14364
C          0.31556       -1.12717        0.67044
C          1.18246       -1.95725        1.34011
C          2.54208       -2.25259        0.86533
C          3.07249       -1.71353       -0.31301
C          4.35649       -2.00252       -0.74644
C          3.37088       -3.11946        1.61791
C          4.66522       -3.41080        1.18124
C          5.16616       -2.86191        0.00799
O          6.43360       -3.21128       -0.32272
C          6.98398       -2.67659       -1.50582
C          0.73350       -2.57059        2.57400
C          1.63183       -3.44787        3.29513
C          2.87260       -3.70677        2.84674
C         -0.53016       -2.32024        3.05122
C         -1.43483       -1.46561        2.36915
H         -3.04850       -1.66627        3.77017
H         -5.23083       -0.54495        3.58414
H         -5.89706        1.15278       -2.18412
H         -5.82258        2.45386       -4.30008
H         -6.22779        4.90172       -4.26308
H         -6.68427        6.04777       -2.11076
H         -6.70187        4.75404        0.00513
H         -3.70935        1.58931       -0.71367
H         -1.53709        0.45394       -0.47134
H          0.61280       -0.64750       -0.25686
H          2.47571       -1.04438       -0.92350
H          4.71557       -1.55689       -1.66677
H          5.30201       -4.07534        1.75735
H          7.99394       -3.08177       -1.57645
H          7.03653       -1.58101       -1.46695
H          6.41046       -2.98070       -2.39081
H          1.27199       -3.89548        4.21771
H          3.53407       -4.36752        3.40033
H         -0.85325       -2.78760        3.97881
