45
anti_S_S_tetClbenz_m-CF3benz.log	Energy: -2491536.4677334
C         -3.53937        0.30280       -1.19570
C         -4.57872       -0.12721       -0.36714
C         -5.94259        0.14569       -0.67627
C         -6.94253       -0.28527        0.15002
C         -8.38409       -0.10859        0.00959
C         -9.08569        0.54754       -1.00392
C        -10.46827        0.61006       -0.95505
C         -9.09594       -0.69660        1.06612
C        -10.48438       -0.64080        1.12525
C        -11.16084        0.01740        0.10647
C        -12.66546        0.06450        0.10412
F        -13.18032       -0.79461       -0.79315
F        -13.18526       -0.25105        1.30064
F        -13.11796        1.28687       -0.22403
C         -6.61538       -1.02060        1.34184
S         -8.05399       -1.47552        2.25530
C         -5.32592       -1.30487        1.67760
C         -4.26579       -0.86433        0.82931
C         -2.92921       -1.13032        1.13057
C         -1.89021       -0.69969        0.30145
C         -0.52998       -0.97841        0.62227
C          0.48887       -0.55483       -0.19195
C          1.94508       -0.71780       -0.07314
C          2.72373       -1.35268        0.90398
Cl         1.98369       -2.12617        2.26926
C          4.11991       -1.37836        0.80162
Cl         5.06780       -2.16494        2.01508
C          2.61769       -0.11295       -1.15186
C          4.00283       -0.13105       -1.26599
Cl         4.74433        0.63914       -2.62705
C          4.76349       -0.76631       -0.28568
Cl         6.48423       -0.79634       -0.41430
C          0.14950        0.18106       -1.38361
S          1.56138        0.65335       -2.31941
C         -1.13579        0.46943       -1.72896
C         -2.20402        0.03544       -0.89177
H         -3.77730        0.85952       -2.09915
H         -6.17175        0.70267       -1.58110
H         -8.55089        1.01075       -1.82749
H        -11.01873        1.12287       -1.73632
H        -11.02970       -1.09408        1.94512
H         -5.08465       -1.86067        2.57899
H         -2.68959       -1.68684        2.03364
H         -0.33006       -1.53377        1.52778
H         -1.36277        1.02618       -2.63358
