39
anti_S_O_3-F_p-CF3benz.log	Energy: -1101174.4692696
C         -2.94008       -1.80256        0.13252
C         -1.86659       -0.91288        0.09143
C         -0.51780       -1.38215        0.02693
C          0.50189       -0.47823       -0.01185
C          1.95309       -0.55934       -0.07736
C          2.87590       -1.59739       -0.12989
C          4.22746       -1.27425       -0.19294
C          5.26808       -2.35899       -0.20699
F          4.74321       -3.56137       -0.49488
F          6.22917       -2.11074       -1.11460
F          5.88344       -2.47062        0.98474
C          2.40150        0.76627       -0.08781
C          3.74267        1.10774       -0.14957
C          4.65374        0.06064       -0.20212
C          0.21490        0.92480        0.01246
O          1.37326        1.66261       -0.03426
C         -1.03845        1.43464        0.07327
C         -2.12941        0.50793        0.11489
C         -3.45031        0.94665        0.17790
C         -4.52802        0.05426        0.21910
C         -5.87221        0.51160        0.28321
C         -6.89691       -0.39584        0.32200
C         -8.32015       -0.16103        0.38790
F         -8.79875        1.08507        0.41928
C         -9.07912       -1.26849        0.41335
C         -6.63054       -1.80431        0.29877
S         -8.12359       -2.73868        0.35874
C         -5.35339       -2.28242        0.23739
C         -4.26578       -1.36244        0.19580
H         -2.73951       -2.87145        0.11483
H         -0.32702       -2.45155        0.00977
H          2.55495       -2.63295       -0.12620
H          4.05954        2.14397       -0.15945
H          5.71513        0.27885       -0.25654
H         -1.21972        2.50380        0.09010
H         -3.65207        2.01507        0.19564
H         -6.08012        1.57730        0.30108
H        -10.15765       -1.31497        0.46154
H         -5.14757       -3.34885        0.21960
