52
anti_NPh_NPh_C_2-Cl.log	Energy: -1081770.6285412
C          0.86681       -1.40905        1.08067
C          2.19335       -0.97113        1.02779
C          3.13709       -1.33482        2.02981
C          4.42968       -0.88728        1.94421
C          5.59973       -1.06015        2.77050
C          6.59513       -0.36391        2.17115
Cl         8.23340       -0.23444        2.67776
C          4.82191       -0.05326        0.83838
N          6.17070        0.25996        1.00433
C          6.93656        1.06050        0.11617
C          7.10986        0.64188       -1.20236
C          7.83305        1.43473       -2.08678
C          8.39626        2.63207       -1.65274
C          8.22519        3.04238       -0.33325
C          7.48548        2.26508        0.55142
C          3.95399        0.33219       -0.14250
C          2.60647       -0.12615       -0.07014
C          1.66530        0.22232       -1.04126
C          0.33894       -0.21659       -0.98849
C         -0.60415        0.13833       -1.99365
C         -1.89700       -0.30764       -1.90683
C         -3.06278       -0.15467       -2.74621
C         -4.06869       -0.84268       -2.15578
C         -2.29796       -1.12793       -0.79103
N         -3.64499       -1.43512       -0.97201
C         -4.46089       -2.21292       -0.12155
C         -4.45900       -1.98848        1.25672
C         -5.27207       -2.75601        2.08290
C         -6.10621       -3.73177        1.54332
C         -6.11649       -3.94308        0.16745
C         -5.28954       -3.19626       -0.66450
C         -1.42339       -1.51352        0.18641
C         -0.07518       -1.05884        0.11043
H          0.55762       -2.04441        1.90821
H          2.81806       -1.96363        2.85670
H          5.68642       -1.63443        3.68026
H          6.67763       -0.30129       -1.52155
H          7.96569        1.10981       -3.11410
H          8.96716        3.24568       -2.34280
H          8.65871        3.97740        0.00774
H          7.32765        2.58480        1.57627
H          4.26590        0.97236       -0.96207
H          1.97459        0.85734       -1.86899
H         -0.28274        0.75602       -2.82823
H         -3.12877        0.40989       -3.66478
H         -5.10117       -0.95266       -2.45816
H         -3.83454       -1.20315        1.66984
H         -5.26452       -2.57723        3.15387
H         -6.74472       -4.32373        2.19145
H         -6.75952       -4.70511       -0.26245
H         -5.26901       -3.38240       -1.73405
H         -1.72442       -2.15931        1.00519
