54
anti_C_NPh_2-F_m-OMebenz.log	Energy: -892771.4505561
C         -2.91116       -1.74768       -0.01261
C         -1.85970       -0.84025       -0.01095
C         -0.49801       -1.27513       -0.08148
C          0.50961       -0.35944       -0.07467
C          1.95697       -0.46209       -0.14379
C          2.84390       -1.53524       -0.22178
C          4.20568       -1.29434       -0.25439
C          2.46579        0.84529       -0.10397
C          3.83261        1.11577       -0.12369
C          4.69650        0.02291       -0.20153
O          6.04749        0.13381       -0.23095
C          6.61112        1.42448       -0.17536
C          0.20589        1.05110        0.00750
N          1.41110        1.75464       -0.01366
C          1.53901        3.16273        0.04462
C          0.98931        3.86871        1.11538
C          1.10880        5.25335        1.16447
C          1.79290        5.93531        0.16137
C          2.34869        5.22737       -0.90104
C          2.21384        3.84471       -0.96873
C         -1.07129        1.51980        0.06368
C         -2.14940        0.57790        0.05888
C         -3.47466        0.99166        0.11976
C         -4.54271        0.07752        0.11776
C         -5.88847        0.49386        0.18012
C         -6.93335       -0.41542        0.17861
C         -8.30597        0.00102        0.24213
C         -9.28548       -0.93265        0.23761
F        -10.57481       -0.56089        0.29662
C         -6.64024       -1.82850        0.11126
C         -7.73442       -2.75939        0.11066
C         -9.02201       -2.33287        0.17183
C         -5.32234       -2.24886        0.04933
C         -4.25216       -1.33223        0.05038
H         -2.69264       -2.81225       -0.06489
H         -0.28795       -2.33968       -0.14495
H          2.47181       -2.55512       -0.25419
H          4.92278       -2.10507       -0.31654
H          4.19334        2.13507       -0.07063
H          7.69175        1.28250       -0.21247
H          6.34515        1.94020        0.75626
H          6.29693        2.03791       -1.02979
H          0.47643        3.32550        1.90289
H          0.67638        5.79936        1.99736
H          1.89119        7.01546        0.20680
H          2.87666        5.75399       -1.69022
H          2.62094        3.28589       -1.80580
H         -1.28945        2.58223        0.10679
H         -3.69543        2.05564        0.17053
H         -6.10686        1.55817        0.23056
H         -8.55599        1.05553        0.29330
H         -7.51106       -3.82155        0.05994
H         -9.85941       -3.02189        0.17234
H         -5.10292       -3.31331       -0.00151
