43
anti_C_S_2-Cl_p-OMebenz.log	Energy: -1189099.3779763
C         -2.83930       -1.64094        0.05048
C         -1.84824       -0.66819        0.06127
C         -0.46193       -1.00871       -0.01853
C          0.49559       -0.03866       -0.00681
C          1.94754       -0.18582       -0.07938
C          2.68524       -1.35873       -0.17805
C          4.07769       -1.29858       -0.23680
O          4.71184       -2.49586       -0.33249
C          6.11980       -2.49910       -0.39601
C          2.60887        1.05310       -0.03941
C          3.99241        1.11770       -0.09732
C          4.72968       -0.06038       -0.19628
C          0.10717        1.34810        0.08762
S          1.50241        2.42752        0.08645
C         -1.19769        1.72283        0.16581
C         -2.22402        0.72419        0.15505
C         -3.56922        1.05937        0.23214
C         -4.57810        0.07984        0.22139
C         -5.94570        0.41249        0.29873
C         -6.93078       -0.56117        0.28696
C         -8.32465       -0.22599        0.36506
C         -9.25941       -1.20871        0.35036
Cl       -10.95896       -0.80919        0.44459
C         -6.55446       -1.95090        0.19378
C         -7.59390       -2.94143        0.18334
C         -8.90348       -2.59213        0.25857
C         -5.21452       -2.28975        0.11737
C         -4.20264       -1.30843        0.12813
H         -2.55578       -2.68871       -0.02010
H         -0.18692       -2.05800       -0.08905
H          2.20520       -2.33146       -0.21145
H          6.41461       -3.54654       -0.46819
H          6.56562       -2.06024        0.50606
H          6.48524       -1.95974       -1.27953
H          4.50787        2.07243       -0.06670
H          5.81053        0.00179       -0.24097
H         -1.48320        2.76841        0.23663
H         -3.85379        2.10670        0.30266
H         -6.22908        1.46009        0.36902
H         -8.61642        0.81691        0.43531
H         -7.31218       -3.98844        0.11328
H         -9.68812       -3.34041        0.25056
H         -4.93060       -3.33743        0.04700
