49
anti_C_S_diOMe_diOMe.log	Energy: -1019836.2482298
C         -2.86416        0.42552        1.59691
C         -4.05907        0.00623        1.02356
C         -5.31722        0.55847        1.41492
C         -6.47260        0.12030        0.83359
C         -7.83198        0.54424        1.10515
O         -8.11659        1.47734        2.06781
C         -8.20447        0.91924        3.37188
C         -8.74647       -0.08443        0.32443
O        -10.07776        0.01282        0.24529
C        -10.68939        1.19445        0.75305
C         -6.42642       -0.89068       -0.19032
S         -8.03896       -1.24852       -0.80553
C         -5.25449       -1.44622       -0.59705
C         -4.02604       -1.01742        0.00163
C         -2.80522       -1.55858       -0.38060
C         -1.59487       -1.13965        0.19812
C         -0.35398       -1.68684       -0.18752
C          0.82990       -1.26324        0.39057
C          2.09915       -1.82528        0.00501
O          2.09231       -2.79773       -0.96128
C          2.41960       -4.09375       -0.47374
C          3.25762       -1.38398        0.58145
O          4.48802       -1.89248        0.26089
C          4.89656       -1.68178       -1.08509
C          0.80390       -0.24264        1.41098
C          2.04554        0.16824        2.00299
C          3.22009       -0.37909        1.60042
C         -0.41079        0.30049        1.79303
C         -1.62656       -0.11839        1.21442
H         -2.88592        1.19681        2.36379
H         -5.34785        1.33795        2.17142
H         -9.05609        0.23038        3.44734
H         -8.34741        1.75514        4.05945
H         -7.28733        0.37909        3.63535
H        -11.71715        1.16648        0.38992
H        -10.17858        2.08572        0.37812
H        -10.68235        1.20753        1.84626
H         -5.22567       -2.20713       -1.37200
H         -2.78088       -2.32733       -1.14984
H         -0.32164       -2.44975       -0.95884
H          3.44209       -4.12149       -0.08250
H          2.32963       -4.77272       -1.32368
H          1.71824       -4.39677        0.31306
H          5.91580       -2.06572       -1.15587
H          4.89251       -0.61161       -1.32527
H          4.24820       -2.21169       -1.78928
H          2.02743        0.93115        2.77615
H          4.16849       -0.07741        2.03327
H         -0.43181        1.07132        2.56040
