41
anti_C_S_diCN_tetClbenz.log	Energy: -2098135.5947837
C         -2.67190       -1.80095       -0.11545
C         -1.69105       -0.82627        0.01960
C         -0.32172       -1.11532       -0.27266
C          0.64474       -0.15662       -0.14033
C          2.09498       -0.21510       -0.37790
C          2.91442       -1.26723       -0.80780
Cl         2.24815       -2.82955       -1.16036
C          4.29374       -1.08189       -0.96349
Cl         5.29334       -2.38892       -1.49374
C          2.70749        1.02334       -0.11124
C          4.07462        1.22173       -0.26182
Cl         4.74165        2.77916        0.08875
C          4.87739        0.16527       -0.69044
Cl         6.57598        0.39754       -0.88165
C          0.24885        1.16126        0.30338
S          1.60333        2.27567        0.42090
C         -1.03924        1.48382        0.59328
C         -2.06249        0.49553        0.46109
C         -3.39310        0.77257        0.74394
C         -4.39037       -0.20846        0.60940
C         -5.74285        0.06636        0.89462
C         -6.71719       -0.90711        0.75861
C         -8.10901       -0.64834        1.04505
C         -8.49141        0.66121        1.48453
N         -8.75857        1.73249        1.83731
C         -9.05200       -1.63914        0.89928
C        -10.43503       -1.38476        1.18314
N        -11.55983       -1.21433        1.40341
C         -6.35079       -2.23073        0.31731
C         -7.37434       -3.22609        0.18239
C         -8.67337       -2.95007        0.45980
C         -5.02486       -2.50913        0.03513
C         -4.02071       -1.52962        0.16831
H         -2.39170       -2.79743       -0.44826
H         -0.07929       -2.11609       -0.60093
H         -1.30832        2.48234        0.92475
H         -3.67414        1.76851        1.07687
H         -6.01760        1.06368        1.22697
H         -7.08856       -4.21963       -0.15050
H         -9.44410       -3.70509        0.35655
H         -4.74847       -3.50668       -0.29745
