55
anti_S_NPh_diOMe_tetClbenz.log	Energy: -2257192.4542454
C         -2.12904       -2.11748        0.02879
C         -1.16985       -1.10147       -0.02251
C          0.17921       -1.38368       -0.38390
C          1.09721       -0.36911       -0.42788
C          2.51502       -0.28457       -0.74940
C          3.46018       -1.22939       -1.13296
Cl         2.99632       -2.89101       -1.30606
C          4.77963       -0.84210       -1.37969
Cl         5.95638       -2.01713       -1.86114
C          2.89363        1.07286       -0.60908
C          4.21114        1.47262       -0.84503
Cl         4.69934        3.12609       -0.65780
C          5.14607        0.50579       -1.23312
Cl         6.78219        0.97943       -1.53531
C          0.68847        0.96797       -0.10637
N          1.79016        1.81562       -0.21994
C          1.66816        3.22302       -0.01312
C          1.79691        3.74122        1.27201
C          1.63852        5.10756        1.47805
C          1.34396        5.94508        0.40499
C          1.19890        5.41668       -0.87557
C          1.35386        4.05103       -1.08683
C         -0.58949        1.29102        0.24303
C         -1.56122        0.24958        0.29421
C         -2.88973        0.50165        0.64472
C         -3.84791       -0.51363        0.69765
C         -5.20129       -0.25124        1.05698
C         -6.11242       -1.27146        1.10159
C         -7.51570       -1.20563        1.45523
O         -8.10876       -0.03083        1.83765
C         -7.92225        0.26135        3.21602
C         -8.13682       -2.41007        1.37345
O         -9.39957       -2.78526        1.60115
C        -10.40949       -1.78159        1.56117
C         -5.71094       -2.61023        0.77079
S         -7.07085       -3.72633        0.86437
C         -4.42880       -2.90741        0.42222
C         -3.45488       -1.86337        0.37867
H         -1.83069       -3.13543       -0.21250
H          0.45303       -2.40468       -0.62031
H          2.03085        3.07206        2.09383
H          1.74781        5.51837        2.47681
H          1.22385        7.01177        0.56751
H          0.96480        6.06832       -1.71146
H          1.24533        3.61996       -2.07700
H         -0.87164        2.31228        0.47806
H         -3.18784        1.52007        0.88344
H         -5.50949        0.76547        1.28502
H         -8.42863       -0.48113        3.84665
H         -8.35955        1.24688        3.38737
H         -6.85747        0.28102        3.47727
H        -11.35496       -2.32431        1.54170
H        -10.30689       -1.16580        0.66333
H        -10.36771       -1.14029        2.44560
H         -4.12943       -3.92118        0.17111
