35
anti_C_O_diCl_diCN.log	Energy: -1222297.1544614
C         -2.68578        0.74528        1.42016
C         -3.92531        0.31266        0.95459
C         -5.13734        0.83085        1.50283
C         -6.32493        0.37291        1.01039
C         -7.72148        0.64360        1.29409
C         -8.23773        1.54898        2.25767
N         -8.62109        2.29792        3.05476
C         -8.43427       -0.14832        0.44650
C         -9.84211       -0.28280        0.29776
N        -10.99140       -0.37918        0.19075
C         -6.34933       -0.60314       -0.03041
O         -7.64910       -0.90641       -0.35857
C         -5.23952       -1.13641       -0.59506
C         -3.97512       -0.67960       -0.10365
C         -2.78250       -1.17198       -0.62476
C         -1.53472       -0.73585       -0.15565
C         -0.32670       -1.23774       -0.68728
C          0.90270       -0.80705       -0.22442
C          2.15875       -1.30037       -0.74736
Cl         2.12765       -2.48831       -2.01424
C          3.34375       -0.84098       -0.25471
Cl         4.87206       -1.40470       -0.85321
C          0.95179        0.18179        0.83046
C          2.22855        0.62786        1.30967
C          3.37870        0.13876        0.79065
C         -0.22529        0.67865        1.35700
C         -1.48622        0.24805        0.89383
H         -2.64790        1.48856        2.21283
H         -5.10203        1.57319        2.29439
H         -5.29585       -1.87694       -1.38490
H         -2.81673       -1.91514       -1.41742
H         -0.37804       -1.97849       -1.47756
H          2.25733        1.37014        2.10166
H          4.34602        0.47210        1.14854
H         -0.18047        1.42166        2.14956
