46
anti_C_O_benz_m-CNbenz.log	Energy: -780436.7858795
C         -2.87966       -1.63298        0.36815
C         -1.77244       -0.84599        0.05442
C         -0.45710       -1.21843        0.47161
C          0.59851       -0.42003        0.14359
C          2.03288       -0.46096        0.37808
C          2.89829       -1.33345        1.03163
C          4.25500       -1.03841        1.05202
C          2.54367        0.68801       -0.24110
C          3.88607        1.01082       -0.23950
C          4.74033        0.12076        0.42312
C          6.14915        0.40044        0.46078
N          7.28627        0.62306        0.49324
C          0.38273        0.77794       -0.61164
O          1.56817        1.43605       -0.83573
C         -0.83597        1.18756       -1.03724
C         -1.96423        0.36892       -0.70759
C         -3.25260        0.71738       -1.10631
C         -4.36390       -0.07435       -0.79027
C         -5.67574        0.27943       -1.19552
C         -6.77521       -0.49158       -0.89031
C         -8.14120       -0.13681       -1.30391
C         -8.43337        1.02083       -2.04540
C         -9.72840        1.32865       -2.42017
C         -9.21262       -0.98698       -0.94703
C        -10.52260       -0.65989       -1.33575
C        -10.78458        0.48361       -2.06424
C         -6.57437       -1.70409       -0.12860
C         -7.71523       -2.52889        0.20284
C         -8.95887       -2.19036       -0.18330
C         -5.30820       -2.06510        0.27444
C         -4.17219       -1.27932       -0.03431
H         -2.73528       -2.54636        0.94098
H         -0.31977       -2.13197        1.04346
H          2.52377       -2.22860        1.51733
H          4.95313       -1.69930        1.55330
H          4.26004        1.90447       -0.72436
H         -0.96367        2.10110       -1.60765
H         -3.39991        1.63009       -1.67914
H         -5.78363        1.19673       -1.76528
H         -7.63729        1.69697       -2.33736
H         -9.92225        2.23054       -2.99279
H        -11.33394       -1.32553       -1.05227
H        -11.80145        0.72483       -2.35815
H         -7.53934       -3.43533        0.77585
H         -9.80702       -2.81974        0.07291
H         -5.17183       -2.97999        0.84693
