37
anti_O_O_2-F_m-CNbenz.log	Energy: -744920.7024684
C         -2.95133       -1.75200       -0.00169
C         -1.86859       -0.87060        0.03937
C         -0.52600       -1.34037       -0.08265
C          0.50153       -0.44344       -0.03746
C          1.95053       -0.53100       -0.12268
C          2.86643       -1.56659       -0.28471
C          4.22061       -1.26148       -0.32163
C          2.41015        0.78746       -0.00097
C          3.74841        1.12542       -0.03360
C          4.65356        0.06959       -0.19736
C          6.06117        0.35556       -0.23950
N          7.19737        0.58301       -0.27429
C          0.22621        0.95071        0.13116
O          1.38943        1.68166        0.15125
C         -1.02388        1.45967        0.25277
C         -2.12029        0.54081        0.20838
C         -3.43926        0.97888        0.32520
C         -4.52529        0.09856        0.28411
C         -5.86638        0.57224        0.40549
C         -6.89910       -0.32290        0.35961
C         -8.34391       -0.23900        0.44295
C         -8.75983       -1.51102        0.32366
F         -9.96506       -2.01759        0.32933
C         -6.61083       -1.71490        0.19119
O         -7.78540       -2.43311        0.17211
C         -5.36508       -2.23196        0.07011
C         -4.27091       -1.31265        0.11515
H         -2.75957       -2.81507       -0.12917
H         -0.34323       -2.40381       -0.20992
H          2.53270       -2.59462       -0.38078
H          4.95723       -2.04709       -0.44661
H          4.08215        2.15155        0.06219
H         -1.19721        2.52277        0.37934
H         -3.63094        2.04182        0.45240
H         -6.04642        1.63562        0.53211
H         -8.96468        0.63327        0.57092
H         -5.19464       -3.29562       -0.05618
