39
anti_C_O_diCl_tetClbenz.log	Energy: -2356522.8057963
C         -2.87797       -1.77190       -0.19426
C         -1.81634       -0.88635       -0.05243
C         -0.46744       -1.31691       -0.26711
C          0.54864       -0.42038       -0.11945
C          1.99976       -0.45798       -0.24240
C          2.94429       -1.42712       -0.56082
Cl         2.42494       -3.03725       -0.92681
C          4.30145       -1.08560       -0.57999
Cl         5.48467       -2.28372       -0.97361
C          2.42984        0.83907        0.05209
C          3.76310        1.21260        0.04239
Cl         4.19544        2.83824        0.41961
C          4.70621        0.22922       -0.27946
Cl         6.38095        0.64599       -0.30421
C          0.25255        0.93506        0.24700
O          1.40547        1.67864        0.34475
C         -0.99501        1.40725        0.46468
C         -2.08611        0.48834        0.31744
C         -3.40008        0.88765        0.52192
C         -4.47609       -0.00542        0.37940
C         -5.80997        0.40230        0.58742
C         -6.86842       -0.47828        0.44603
C         -8.24745       -0.09348        0.65166
Cl        -8.60015        1.54838        1.09773
C         -9.25242       -1.00235        0.49860
Cl       -10.92042       -0.58205        0.73579
C         -6.59852       -1.84914        0.07618
C         -7.69506       -2.76128       -0.07053
C         -8.97163       -2.35777        0.13160
C         -5.29246       -2.25681       -0.12923
C         -4.20746       -1.36969        0.01172
H         -2.67544       -2.80364       -0.47188
H         -0.27903       -2.34814       -0.54302
H         -1.17285        2.44063        0.74061
H         -3.60550        1.91842        0.79986
H         -5.99805        1.43368        0.86458
H         -7.48376       -3.78949       -0.34865
H         -9.80445       -3.04286        0.02213
H         -5.09690       -3.28980       -0.40707
