59
anti_C_NPh_m-CF3benz_diCF3.log	Energy: -1392991.9757637
C         -2.76711       -1.52185        2.31516
C         -3.64530       -0.58860        1.75163
C         -4.99415       -0.49766        2.18758
C         -5.83262        0.42610        1.61213
C         -7.21983        0.79463        1.80212
C         -8.16698        0.17632        2.78049
F         -9.09807       -0.58698        2.18635
F         -7.50821       -0.61639        3.64662
F         -8.81324        1.09764        3.51318
C         -7.49350        1.79088        0.90770
C         -8.78268        2.53049        0.67011
F         -9.82508        1.87934        1.18354
F         -8.74881        3.75448        1.22409
F         -9.00993        2.68865       -0.64178
C         -5.33136        1.28293        0.57669
N         -6.37117        2.10907        0.16947
C         -6.22624        3.12627       -0.82235
C         -6.04279        2.75400       -2.15160
C         -5.86262        3.73719       -3.11778
C         -5.87460        5.08230       -2.75589
C         -6.05816        5.44506       -1.42453
C         -6.22486        4.46692       -0.44957
C         -4.03937        1.24254        0.12997
C         -3.15847        0.29333        0.71356
C         -1.82397        0.18788        0.30606
C         -0.95398       -0.74443        0.87202
C          0.40132       -0.85448        0.45955
C          1.26628       -1.77029        1.01017
C          2.67084       -1.89528        0.59281
C          3.24153       -1.08361       -0.40424
C          4.56220       -1.22088       -0.77761
C          3.49043       -2.86528        1.21063
C          4.83350       -2.99642        0.82203
C          5.36621       -2.18635       -0.15909
C          6.79920       -2.31922       -0.59144
F          6.88945       -2.66324       -1.88930
F          7.46166       -1.15599       -0.45510
F          7.46533       -3.24546        0.11524
C          0.77173       -2.65149        2.04746
C          1.66763       -3.62195        2.63749
C          2.94976       -3.72408        2.24372
C         -0.53583       -2.56236        2.46250
C         -1.43878       -1.62241        1.90319
H         -3.13280       -2.18522        3.09565
H         -5.34199       -1.16084        2.97015
H         -6.04922        1.70129       -2.41596
H         -5.72178        3.45218       -4.15557
H         -5.74028        5.84850       -3.51301
H         -6.06431        6.49245       -1.14016
H         -6.35909        4.73389        0.59284
H         -3.68598        1.91134       -0.64836
H         -1.45704        0.85163       -0.47369
H          0.73284       -0.17623       -0.32020
H          2.64496       -0.32698       -0.90077
H          4.97938       -0.58135       -1.54881
H          5.45296       -3.74535        1.30463
H          1.27362       -4.27208        3.41391
H          3.61154       -4.45784        2.69544
H         -0.89460       -3.23015        3.24259
