40
anti_C_O_m-CNbenz_diF.log	Energy: -808546.2139714
C         -2.77799        0.88618       -0.19889
C         -3.93057        0.26860        0.28861
C         -5.21124        0.88824        0.16265
C         -6.30697        0.24127        0.65705
C         -7.72053        0.51177        0.72988
F         -8.34060        1.59394        0.26910
C         -8.27974       -0.54114        1.35198
F         -9.52259       -0.79293        1.66652
C         -6.16510       -1.03488        1.28855
O         -7.39166       -1.49885        1.70908
C         -4.98177       -1.67484        1.43925
C         -3.81300       -1.02321        0.93175
C         -2.55477       -1.61228        1.04568
C         -1.40202       -0.98897        0.55536
C         -0.12101       -1.58649        0.67049
C          1.01856       -0.98084        0.19118
C          2.35245       -1.58693        0.30290
C          2.56920       -2.83681        0.91008
C          3.83012       -3.38780        1.00455
C          3.47032       -0.89395       -0.21781
C          4.74937       -1.45799       -0.11936
C          4.93508       -2.69317        0.48496
C          6.25150       -3.25941        0.57900
N          7.31315       -3.71850        0.65601
C          0.89581        0.30915       -0.45048
C          2.08133        0.96201       -0.96078
C          3.29668        0.39615       -0.85201
C         -0.33859        0.90541       -0.57179
C         -1.51768        0.29200       -0.08259
H         -2.86280        1.85656       -0.68249
H         -5.29779        1.85658       -0.31961
H         -4.91321       -2.64261        1.92400
H         -2.46719       -2.58272        1.52891
H         -0.07291       -2.55454        1.15864
H          1.73677       -3.39666        1.32019
H          3.97486       -4.35330        1.47690
H          5.60304       -0.92056       -0.52124
H          1.96321        1.93062       -1.43866
H          4.17886        0.89766       -1.23974
H         -0.41641        1.87593       -1.05657
