34
anti_S_S_2-F_3-OMe.log	Energy: -1067855.5721743
C          1.74732       -0.83239       -0.56607
C          2.82235       -0.00965       -0.21525
C          4.17121       -0.42501       -0.39209
C          5.19766        0.41131       -0.04309
C          6.62995        0.18157       -0.13871
O          7.14753       -0.97886       -0.63188
C          7.20929       -1.01428       -2.05121
C          7.36794        1.20943        0.32615
C          4.92000        1.69946        0.52256
S          6.40999        2.54985        0.92329
C          3.64091        2.13629        0.71195
C          2.55260        1.29282        0.34127
C          1.22536        1.69638        0.51096
C          0.15276        0.87507        0.15843
C         -1.19883        1.29170        0.33344
C         -2.23385        0.46807       -0.01895
C         -3.65908        0.70548        0.07988
C         -4.35994       -0.34620       -0.36901
F         -5.67865       -0.45343       -0.41666
C         -1.94351       -0.83260       -0.57220
S         -3.42281       -1.71663       -0.95110
C         -0.66843       -1.27300       -0.75734
C          0.42371       -0.42745       -0.39558
H          1.95107       -1.81589       -0.98371
H          4.38242       -1.41238       -0.79384
H          7.89527       -0.24675       -2.43023
H          6.21970       -0.86018       -2.49911
H          7.58148       -2.00406       -2.32049
H          8.44790        1.25705        0.36017
H          3.43259        3.11113        1.14377
H          1.02187        2.67894        0.93083
H         -1.39761        2.27475        0.75188
H         -4.11099        1.61030        0.46468
H         -0.46161       -2.25450       -1.17424
