35
anti_C_S_3-CN_2-CN.log	Energy: -848198.4673816
C          1.19691        1.62666        0.26353
C          0.10093        0.78723        0.08480
C         -1.23446        1.27652        0.17204
C         -2.29463        0.42871       -0.00802
C         -3.70481        0.72799        0.04024
C         -4.47868       -0.35937       -0.18538
C         -5.90151       -0.37809       -0.20112
N         -7.06101       -0.39631       -0.21451
C         -2.05978       -0.96684       -0.28737
S         -3.57136       -1.84463       -0.47726
C         -0.80098       -1.47900       -0.37991
C          0.32217       -0.61482       -0.19612
C          1.62594       -1.09212       -0.28145
C          2.73298       -0.24877       -0.10202
C          4.05672       -0.73088       -0.18839
C          5.13993        0.10814       -0.00981
C          6.50968       -0.35434       -0.09192
C          6.76323       -1.73868       -0.37025
N          6.94917       -2.86089       -0.59598
C          7.55830        0.50248        0.09041
C          4.92353        1.50733        0.27123
C          6.06074        2.36418        0.45432
C          7.32881        1.88299        0.36786
C          3.62980        1.99014        0.35775
C          2.51254        1.14808        0.17814
H          1.03035        2.68037        0.47480
H         -1.40056        2.32948        0.38300
H         -4.10833        1.71413        0.23556
H         -0.62857       -2.53027       -0.59038
H          1.79528       -2.14516       -0.49244
H          4.21900       -1.78457       -0.39989
H          8.57471        0.12906        0.02338
H          5.88334        3.41522        0.66544
H          8.17971        2.54097        0.50830
H          3.46647        3.04427        0.56943
