50
anti_O_NPh_3-CF3_tetFbenz.log	Energy: -1217728.8592093
C         -2.58751       -1.94123        0.10712
C         -1.57269       -0.98345        0.07426
C         -0.21741       -1.34969       -0.17786
C          0.74475       -0.38216       -0.19972
C          2.17548       -0.40849       -0.43687
C          3.06497       -1.43764       -0.70336
F          2.63634       -2.69894       -0.79711
C          4.41227       -1.15970       -0.87316
F          5.28403       -2.13418       -1.13418
C          2.63642        0.92027       -0.33782
C          3.99026        1.20236       -0.49108
F          4.48014        2.44127       -0.38313
C          4.86319        0.15665       -0.76566
F          6.15929        0.41213       -0.92324
C          0.40487        0.99563        0.03435
N          1.57060        1.76243       -0.04828
C          1.60492        3.18048        0.05069
C          1.20026        3.79230        1.23551
C          1.19991        5.18026        1.32759
C          1.61796        5.95278        0.24754
C          2.02833        5.33499       -0.93126
C          2.01200        3.94924       -1.03741
C         -0.87783        1.39533        0.26650
C         -1.90501        0.40369        0.29392
C         -3.23731        0.74386        0.53003
C         -4.25721       -0.21296        0.56262
C         -5.61149        0.16093        0.80585
C         -6.57120       -0.81237        0.82828
C         -8.00564       -0.84544        1.03373
C         -8.89234        0.31261        1.30310
F         -8.53417        0.95794        2.42746
F         -8.83911        1.21674        0.30897
F        -10.17274       -0.06861        1.44092
C         -8.37526       -2.13705        0.93126
C         -6.21323       -2.17541        0.61093
O         -7.33325       -2.96793        0.67862
C         -4.94527       -2.59709        0.37422
C         -3.92155       -1.60148        0.34491
H         -2.33089       -2.98505       -0.05882
H          0.03360       -2.39036       -0.35481
H          0.89424        3.17675        2.07573
H          0.88394        5.65707        2.25020
H          1.62504        7.03556        0.32422
H          2.35355        5.93386       -1.77612
H          2.31550        3.45808       -1.95632
H         -1.13073        2.43858        0.42566
H         -3.49346        1.78798        0.69438
H         -5.86246        1.20437        0.96864
H         -9.34182       -2.61068        1.01493
H         -4.70899       -3.64324        0.21265
