52
anti_S_NPh_2-OMe_p-CNbenz.log	Energy: -1089668.7714087
C         -2.57491       -2.02046        0.32538
C         -1.58632       -1.03784        0.22697
C         -0.21804       -1.37835        0.01481
C          0.71959       -0.39072       -0.07351
C          2.15775       -0.39330       -0.29081
C          3.08635       -1.40601       -0.46845
C          4.43168       -1.06246       -0.64141
C          5.41184       -2.09264       -0.82940
N          6.20473       -2.92539       -0.98164
C          2.57420        0.95584       -0.29155
C          3.91410        1.30661       -0.45187
C          4.83410        0.28498       -0.62814
C          0.33172        0.98828        0.04965
N          1.47738        1.77883       -0.08837
C          1.50875        3.19483       -0.02233
C          1.04905        3.84562        1.12246
C          1.07283        5.23478        1.18132
C          1.57158        5.97384        0.11151
C          2.03742        5.31973       -1.02592
C          1.99700        3.93137       -1.10116
C         -0.96430        1.36637        0.24200
C         -1.96283        0.35046        0.33845
C         -3.30810        0.66785        0.53923
C         -4.29708       -0.31457        0.63693
C         -5.66739        0.01752        0.84204
C         -6.61880       -0.96379        0.93520
C         -8.04444       -0.83142        1.13980
C         -8.66889       -2.03119        1.17827
O         -9.95739       -2.34148        1.34572
C        -10.83872       -1.24424        1.51431
C         -6.21884       -2.34441        0.82310
S         -7.60349       -3.42362        0.97275
C         -4.92193       -2.70918        0.62675
C         -3.91751       -1.69936        0.52726
H         -2.28802       -3.06652        0.24122
H          0.05913       -2.42524       -0.07806
H          2.78590       -2.44877       -0.47157
H          4.23067        2.34354       -0.43438
H          5.88484        0.52236       -0.75620
H          0.68115        3.25792        1.95770
H          0.71220        5.74001        2.07195
H          1.59650        7.05778        0.16397
H          2.42166        5.89137       -1.86501
H          2.33454        3.41200       -1.99284
H         -1.24986        2.41082        0.31782
H         -3.59558        1.71372        0.62196
H         -5.94882        1.06425        0.92373
H         -8.54205        0.12356        1.24796
H        -11.83319       -1.67204        1.63680
H        -10.81852       -0.59282        0.63271
H        -10.56915       -0.66487        2.40517
H         -4.63225       -3.75294        0.54356
