45
anti_C_O_2-OMe_diOMe.log	Energy: -745327.5309761
C         -2.58536        0.38686        1.68348
C         -3.74306        0.23642        0.92730
C         -5.00901        0.71362        1.39670
C         -6.11642        0.53679        0.61907
C         -7.52097        0.86578        0.73299
O         -8.11835        1.51033        1.77845
C         -8.27394        0.68782        2.92532
C         -8.10616        0.42371       -0.41343
O         -9.33360        0.43905       -0.91012
C        -10.34062        1.05086       -0.11149
C         -5.99664       -0.10490       -0.65415
O         -7.22211       -0.15553       -1.27137
C         -4.83529       -0.57702       -1.16047
C         -3.65275       -0.41870       -0.36330
C         -2.41890       -0.87856       -0.80688
C         -1.24919       -0.72859       -0.04322
C          0.00602       -1.19436       -0.48967
C          1.15368       -1.04160        0.26905
C          2.43329       -1.51508       -0.18401
C          3.54273       -1.34703        0.58996
O          4.79748       -1.74836        0.27219
C          4.97913       -2.39660       -0.96601
C          1.06173       -0.38742        1.55244
C          2.26531       -0.23813        2.32572
C          3.45427       -0.69592        1.86871
C         -0.16112        0.07378        2.00267
C         -1.33757       -0.07659        1.23750
H         -2.64698        0.87917        2.65180
H         -5.06730        1.21737        2.35723
H         -8.95885       -0.14592        2.72003
H         -8.69154        1.32144        3.71004
H         -7.31227        0.27877        3.25717
H        -11.24953        1.01038       -0.71104
H        -10.08129        2.08718        0.11789
H        -10.48666        0.49696        0.82138
H         -4.78786       -1.05512       -2.13307
H         -2.35433       -1.36953       -1.77551
H          0.06672       -1.68608       -1.45829
H          2.48040       -2.00347       -1.15113
H          6.04129       -2.63496       -1.03113
H          4.69899       -1.74347       -1.80261
H          4.39250       -3.32280       -1.02076
H          2.20246        0.25369        3.29282
H          4.36843       -0.58874        2.44316
H         -0.22324        0.56618        2.97101
