44
anti_S_NPh_2-CF3_3-F.log	Energy: -1137263.3149857
C          0.59501       -0.22814        2.07690
C          1.94984       -0.10930        1.74589
C          2.96861       -0.28049        2.72141
C          4.28045       -0.15773        2.34818
C          5.52690       -0.23629        3.05675
F          5.63717       -0.50432        4.35914
C          6.54251       -0.01413        2.19377
C          4.63769        0.13204        0.98343
N          6.02421        0.20355        0.91634
C          6.80530        0.49133       -0.22536
C          6.56215       -0.17274       -1.42909
C          7.33831        0.11683       -2.54577
C          8.37210        1.04596       -2.46453
C          8.62205        1.69364       -1.25785
C          7.83605        1.42847       -0.14193
C          3.68529        0.32659        0.01953
C          2.31462        0.20513        0.38249
C          1.29703        0.38499       -0.56041
C         -0.05285        0.26687       -0.22673
C         -1.08071        0.45062       -1.19457
C         -2.39783        0.32682       -0.83877
C         -3.57758        0.47233       -1.66159
C         -4.71908        0.27957       -0.97465
C         -6.10213        0.35638       -1.53826
F         -6.07315        0.66503       -2.84252
F         -6.75415       -0.81023       -1.40901
F         -6.83962        1.28849       -0.91373
C         -2.74437        0.00921        0.52197
S         -4.48938       -0.09505        0.72737
C         -1.79414       -0.17468        1.48201
C         -0.41560       -0.05060        1.13337
H          0.32472       -0.46548        3.10339
H          2.70056       -0.49721        3.75106
H          7.60877       -0.02293        2.36220
H          5.78098       -0.92438       -1.47815
H          7.14373       -0.40157       -3.47969
H          8.98084        1.26280       -3.33655
H          9.42345        2.42253       -1.18593
H          8.00623        1.95648        0.79149
H          3.94833        0.57868       -1.00248
H          1.56672        0.62392       -1.58679
H         -0.80747        0.69020       -2.21894
H         -3.54919        0.71057       -2.71765
H         -2.06068       -0.41387        2.50744
