34
anti_S_O_2-Cl_3-OMe.log	Energy: -1091319.8208723
C          1.62285       -1.06198        0.42278
C          2.72754       -0.22159        0.25565
C          4.05749       -0.70303        0.43681
C          5.09974        0.16225        0.26065
C          6.54090        0.05796        0.35002
O          7.15944       -1.09251        0.67146
C          8.56900       -1.01435        0.71176
C          7.03903        1.28079        0.05878
C          4.86247        1.52269       -0.09796
O          6.04143        2.19374       -0.21845
C          3.61912        2.03897       -0.28435
C          2.50656        1.16080       -0.10795
C          1.19499        1.60962       -0.28009
C          0.09341        0.76731       -0.11246
C         -1.23971        1.23463       -0.29055
C         -2.30222        0.38689       -0.11990
C         -3.71565        0.66761       -0.25404
C         -4.47298       -0.41689       -0.00961
Cl        -6.19360       -0.49071       -0.06707
C         -2.06396       -0.98667        0.24254
S         -3.57735       -1.87397        0.40367
C         -0.80533       -1.47713        0.42333
C          0.31450       -0.60969        0.24994
H          1.79098       -2.10132        0.69632
H          4.22719       -1.74004        0.70969
H          8.97259       -0.72903       -0.26900
H          8.92906       -2.00716        0.98146
H          8.89845       -0.28520        1.46410
H          8.04376        1.66842        0.00318
H          3.46782        3.07793       -0.55698
H          1.02607        2.64874       -0.55361
H         -1.40397        2.27366       -0.56399
H         -4.12012        1.63621       -0.52024
H         -0.63368       -2.51436        0.69665
