53
anti_C_NPh_tetFbenz_3-CF3.log	Energy: -1219115.3658038
C         -2.43678       -1.50310        2.31453
C         -3.37623       -0.66825        1.70148
C         -4.71698       -0.59255        2.17131
C         -5.60603        0.23483        1.53973
C         -6.99606        0.56140        1.76172
C         -7.87453       -0.00865        2.80799
F         -8.00623       -1.34369        2.68333
F         -7.38535        0.20591        4.04532
F         -9.10821        0.52457        2.76283
C         -7.35495        1.47001        0.81966
C         -5.18943        1.01709        0.40718
N         -6.29451        1.75947       -0.01111
C         -6.34046        2.67031       -1.09601
C         -5.86680        2.28618       -2.35067
C         -5.92085        3.18529       -3.40976
C         -6.46407        4.45467       -3.22847
C         -6.94718        4.82756       -1.97738
C         -6.87679        3.94319       -0.90628
C         -3.90865        0.99284       -0.06830
C         -2.96662        0.13853        0.57256
C         -1.64215        0.06140        0.13135
C         -0.70842       -0.77354        0.74798
C          0.63592       -0.84729        0.29294
C          1.56977       -1.66657        0.88866
C          2.97106       -1.77131        0.44719
C          3.52085       -1.05404       -0.62713
F          2.79881       -0.19340       -1.35848
C          4.84574       -1.18372       -1.00784
F          5.31464       -0.47913       -2.03428
C          3.84633       -2.65016        1.13790
C          5.18137       -2.76750        0.73843
F          6.00146       -3.59739        1.39345
C          5.69161       -2.04827       -0.32220
F          6.96294       -2.17049       -0.69052
C          1.14932       -2.47394        2.01745
C          2.09953       -3.34587        2.66909
C          3.37565       -3.43401        2.25870
C         -0.14751       -2.41368        2.46997
C         -1.11735       -1.57555        1.86617
H         -2.74410       -2.11016        3.16304
H         -5.01922       -1.18485        3.02949
H         -8.31615        1.93450        0.65048
H         -5.47468        1.28423       -2.49245
H         -5.55044        2.88507       -4.38498
H         -6.51092        5.15071       -4.05990
H         -7.36759        5.81706       -1.82750
H         -7.22131        4.23911        0.08004
H         -3.59515        1.60739       -0.90595
H         -1.33111        0.66850       -0.71589
H          0.90278       -0.22763       -0.55028
H          1.75195       -3.93729        3.51153
H          4.08019       -4.09091        2.75428
H         -0.44237       -3.02732        3.31825
