47
anti_C_S_benz_diOMe.log	Energy: -972540.3401491
C         -2.59006        0.32807        1.66784
C         -3.76786       -0.14286        1.08841
C         -5.04920        0.33043        1.49830
C         -6.18383       -0.15654        0.91080
C         -7.56225        0.18632        1.19810
O         -7.89248        1.07966        2.18348
C         -7.94733        0.48659        3.47392
C         -8.44540       -0.47290        0.40609
O         -9.78040       -0.44610        0.33515
C        -10.45121        0.69237        0.86667
C         -6.08776       -1.13752       -0.13531
S         -7.68050       -1.56924       -0.75278
C         -4.88735       -1.61848       -0.55950
C         -3.68450       -1.13663        0.04433
C         -2.43301       -1.60102       -0.35572
C         -1.25149       -1.12872        0.22808
C          0.02461       -1.59816       -0.17480
C          1.19254       -1.13943        0.39191
C          2.52267       -1.61660       -0.01574
C          2.70845       -2.58206       -1.02015
C          3.97201       -3.01195       -1.38235
C          3.66977       -1.09032        0.62116
C          4.94646       -1.53773        0.24142
C          5.10323       -2.48779       -0.74845
C          1.10277       -0.14263        1.43539
C          2.31695        0.35363        2.04483
C          3.52676       -0.09322        1.66106
C         -0.12688        0.32588        1.84103
C         -1.33383       -0.13887        1.26518
H         -2.64907        1.07840        2.45326
H         -5.11830        1.08882        2.27342
H         -8.76111       -0.24798        3.53399
H         -8.13241        1.29707        4.18156
H         -7.00221       -0.01041        3.72314
H        -11.47764        0.61689        0.50661
H         -9.98966        1.61595        0.50630
H        -10.43994        0.68599        1.95986
H         -4.82093       -2.35865       -1.35203
H         -2.37200       -2.34979       -1.14267
H          0.04711       -2.34606       -0.96113
H          1.85207       -3.00822       -1.53127
H          4.08238       -3.75933       -2.16227
H          5.81676       -1.12135        0.74253
H          6.09553       -2.82475       -1.03233
H          2.22479        1.10278        2.82675
H          4.43054        0.28917        2.12829
H         -0.17778        1.07613        2.62724
