49
anti_O_NPh_diOMe_2-F.log	Energy: -866832.8849022
C          0.81875        1.55738       -0.02815
C         -0.38314        0.83992       -0.05369
C         -1.64195        1.49890       -0.13965
C         -2.79865        0.76500       -0.15680
C         -4.19767        1.11641       -0.24963
C         -4.86420       -0.05746       -0.23234
F         -6.16705       -0.27092       -0.28154
C         -2.72541       -0.67310       -0.08567
N         -4.03444       -1.16000       -0.13733
C         -4.44704       -2.51117       -0.02289
C         -3.96691       -3.29207        1.02873
C         -4.35668       -4.62265        1.13228
C         -5.24050       -5.16952        0.20581
C         -5.72756       -4.38132       -0.83329
C         -5.32530       -3.05628       -0.95864
C         -1.54310       -1.35130       -0.01785
C         -0.33223       -0.60043        0.00344
C          0.91417       -1.23040        0.07765
C          2.11243       -0.51524        0.10032
C          3.37625       -1.17899        0.17555
C          4.52043       -0.43197        0.19097
C          5.93782       -0.71584        0.25959
O          6.51264       -1.95282        0.33553
C          6.48525       -2.65612       -0.89732
C          6.56497        0.49213        0.25289
O          7.82443        0.89990        0.30973
C          8.82116       -0.11105        0.40527
C          4.43813        0.99325        0.14748
O          5.69784        1.53886        0.19536
C          3.27635        1.68429        0.07780
C          2.05992        0.92838        0.04780
H          0.78106        2.64396       -0.06916
H         -1.67012        2.58372       -0.19595
H         -4.63523        2.10003       -0.31680
H         -3.29790       -2.85030        1.76027
H         -3.97802       -5.22901        1.94933
H         -5.54929       -6.20646        0.29368
H         -6.41563       -4.80182       -1.56014
H         -5.68496       -2.44390       -1.77833
H         -1.50618       -2.43578        0.01328
H          0.95115       -2.31711        0.11907
H          3.40927       -2.26342        0.22985
H          5.46161       -2.75712       -1.27719
H          6.90169       -3.64620       -0.70208
H          7.09245       -2.14295       -1.65527
H          9.76762        0.42256        0.48806
H          8.82661       -0.73849       -0.49183
H          8.65950       -0.73766        1.28577
H          3.25694        2.76863        0.04913
