33
anti_S_O_2-CN_diCN.log	Energy: -904666.4288357
C          0.97097       -1.29170       -0.00119
C          2.15782       -0.55269       -0.00048
C          3.42571       -1.20243        0.00048
C          4.55441       -0.43155        0.00116
C          5.97852       -0.70481        0.00217
C          6.60436       -1.97886        0.00277
N          7.07890       -3.03621        0.00323
C          6.59110        0.51147        0.00246
C          7.97648        0.83160        0.00339
N          9.10914        1.07385        0.00416
C          4.45844        0.98992        0.00089
O          5.71410        1.54593        0.00169
C          3.28462        1.66969       -0.00001
C          2.08581        0.89305       -0.00073
C          0.83129        1.50496       -0.00167
C         -0.35313        0.76338       -0.00236
C         -1.62622        1.39627       -0.00328
C         -2.77223        0.64270       -0.00393
C         -4.14301        1.09001       -0.00487
C         -5.02703        0.06450       -0.00536
C         -6.44480        0.18811       -0.00632
N         -7.60029        0.28583       -0.00709
C         -2.68587       -0.79468       -0.00367
S         -4.27996       -1.53276       -0.00455
C         -1.48505       -1.44199       -0.00280
C         -0.28164       -0.67714       -0.00212
H          1.02800       -2.37742       -0.00101
H          3.48230       -2.28669        0.00066
H          3.24858        2.75328       -0.00019
H          0.77361        2.59064       -0.00186
H         -1.68079        2.48144       -0.00347
H         -4.44089        2.13147       -0.00522
H         -1.42352       -2.52614       -0.00261
