47
anti_O_NPh_tetFbenz_3-F.log	Energy: -1068533.4616803
C         -2.79034       -1.94749        1.54382
C         -3.91279       -1.28239        1.02968
C         -5.23080       -1.67127        1.38465
C         -6.29578       -0.99183        0.85288
C         -7.71877       -1.09421        1.01089
F         -8.32876       -2.00046        1.77708
C         -8.31831       -0.14804        0.25455
C         -6.09363        0.09901       -0.06374
N         -7.34452        0.58841       -0.42064
C         -7.61712        1.67541       -1.28160
C         -6.98735        1.76265       -2.52446
C         -7.26447        2.83554       -3.36432
C         -8.18450        3.80917       -2.98449
C         -8.82298        3.70930       -1.75141
C         -8.53453        2.65307       -0.89428
C         -4.83691        0.51803       -0.41210
C         -3.71710       -0.17150        0.12807
C         -2.40761        0.20538       -0.19703
C         -1.29488       -0.45687        0.31656
C          0.03188       -0.05287       -0.03216
C          1.08948       -0.73208        0.49419
C          2.53355       -0.62789        0.38405
C          3.40340        0.20553       -0.30131
F          2.94154        1.18525       -1.07981
C          4.77210        0.01392       -0.17238
F          5.63011        0.80079       -0.81970
C          3.04521       -1.64769        1.19384
C          4.40637       -1.85673        1.33662
F          4.89776       -2.82504        2.10507
C          5.26412       -1.00987        0.64069
F          6.57888       -1.17429        0.74846
C          0.87131       -1.83378        1.38334
O          2.06860       -2.37746        1.79804
C         -0.35677       -2.26503        1.75266
C         -1.49158       -1.57167        1.21641
H         -2.94329       -2.78399        2.22185
H         -5.38496       -2.49312        2.07736
H         -9.36767        0.05512        0.10303
H         -6.30068        0.98126       -2.83347
H         -6.77056        2.89940       -4.32908
H         -8.40408        4.64048       -3.64685
H         -9.53894        4.46580       -1.44514
H         -9.00487        2.58981        0.08236
H         -4.67821        1.36147       -1.07598
H         -2.25467        1.04303       -0.87391
H          0.18131        0.78373       -0.70696
H         -0.48863       -3.10284        2.42858
