44
anti_O_O_p-CNbenz_m-CNbenz.log	Energy: -836916.8023239
C         -3.52088        0.34153       -1.16691
C         -4.61610       -0.15365       -0.45368
C         -5.95226        0.19670       -0.81358
C         -6.99247       -0.30963       -0.08953
C         -8.44055       -0.18926       -0.14464
C         -9.34104        0.49129       -0.95936
C        -10.69978        0.36575       -0.70306
C         -8.91925       -0.98018        0.90837
C        -10.26292       -1.12679        1.19069
C        -11.15226       -0.43448        0.35998
C        -12.56457       -0.54558        0.60111
N        -13.70440       -0.63324        0.79290
C         -6.73773       -1.18106        1.01638
O         -7.91075       -1.57796        1.60926
C         -5.49401       -1.55150        1.40823
C         -4.38586       -1.03468        0.66585
C         -3.07167       -1.36443        1.00020
C         -1.97698       -0.86954        0.28699
C         -0.64006       -1.22083        0.64670
C          0.39944       -0.71509       -0.07726
C          1.84905       -0.83382       -0.02525
C          2.74736       -1.51151        0.78584
C          4.11360       -1.37600        0.51637
C          5.06881       -2.06492        1.33799
N          5.83907       -2.62164        2.00199
C          2.32722       -0.04199       -1.07866
C          3.67509        0.10589       -1.36295
C          4.56820       -0.57563       -0.54671
C          0.14397        0.15665       -1.18231
O          1.31925        0.55370       -1.77572
C         -1.09848        0.52832       -1.57473
C         -2.20739        0.01166       -0.83236
H         -3.69919        1.00512       -2.00985
H         -6.12041        0.86013       -1.65728
H         -8.99208        1.10915       -1.78024
H        -11.42512        0.88374       -1.32027
H        -10.61200       -1.74351        2.01000
H         -5.33526       -2.21443        2.25172
H         -2.89337       -2.02823        1.84290
H         -0.47236       -1.88479        1.49000
H          2.41084       -2.13239        1.60921
H          4.01196        0.72584       -2.18523
H          5.63463       -0.49368       -0.72637
H         -1.25663        1.19149       -2.41816
