45
anti_C_NPh_3-CN_2-Cl.log	Energy: -1008536.0921623
C          1.06480        1.78361        0.15341
C         -0.09037        1.00603        0.11135
C         -1.38596        1.59725        0.18765
C         -2.49956        0.80304        0.14535
C         -3.91572        1.07211        0.19159
C         -4.53353       -0.13013        0.10169
Cl        -6.22174       -0.44418        0.13820
C         -2.35198       -0.62727        0.02559
N         -3.62901       -1.18008       -0.00125
C         -3.91387       -2.56907       -0.10547
C         -3.50319       -3.42704        0.91331
C         -3.75090       -4.79109        0.80397
C         -4.42042       -5.29285       -0.30922
C         -4.83338       -4.42975       -1.32082
C         -4.57146       -3.06709       -1.22807
C         -1.13836       -1.24366       -0.06005
C          0.03511       -0.43350       -0.01609
C          1.30652       -0.99731       -0.09380
C          2.46880       -0.21473       -0.05165
C          3.75752       -0.78706       -0.12994
C          4.89588       -0.00573       -0.08732
C          6.23159       -0.56007       -0.16481
C          6.39289       -1.98007       -0.29029
N          6.50724       -3.12989       -0.39122
C          7.33673        0.24278       -0.12037
C          4.77551        1.42768        0.03944
C          5.96867        2.22421        0.08135
C          7.20188        1.65736        0.00459
C          3.51764        1.99857        0.11716
C          2.34438        1.21626        0.07561
H          0.97220        2.86326        0.24882
H         -1.47185        2.67671        0.27555
H         -4.40261        2.03038        0.28848
H         -2.99550       -3.01822        1.78134
H         -3.42899       -5.46082        1.59526
H         -4.61903       -6.35710       -0.38906
H         -5.35154       -4.81853       -2.19179
H         -4.87042       -2.38669       -2.01880
H         -1.05044       -2.32085       -0.16087
H          1.40279       -2.07625       -0.19036
H          3.84693       -1.86622       -0.22576
H          8.32524       -0.20045       -0.18073
H          5.86307        3.30168        0.17671
H          8.09547        2.27167        0.03735
H          3.42713        3.07834        0.21269
