34
anti_C_O_2-CN_3-F.log	Energy: -649911.1207109
C         -2.57339        0.82256        1.16433
C         -3.77906        0.21127        0.83049
C         -5.02886        0.76782        1.24251
C         -6.18074        0.12819        0.88764
C         -7.59108        0.34817        1.09200
F         -8.11391        1.36800        1.76572
C         -8.26027       -0.64867        0.48700
C         -6.13917       -1.07716        0.11751
O         -7.40515       -1.53599       -0.11736
C         -4.98691       -1.65498       -0.30331
C         -3.75748       -1.01225        0.04993
C         -2.53168       -1.53978       -0.34254
C         -1.31646       -0.92358       -0.00607
C         -0.07249       -1.45663       -0.40312
C          1.11964       -0.83925       -0.06519
C          2.38436       -1.37775       -0.46677
C          3.54862       -0.75265       -0.12281
C          4.80807       -1.30611       -0.53363
N          5.82954       -1.74623       -0.86129
C          1.10011        0.37854        0.71127
C          2.35338        0.99775        1.04730
C          3.53348        0.46182        0.65118
C         -0.11312        0.91028        1.10626
C         -1.33708        0.29199        0.76919
H         -2.59023        1.73935        1.74910
H         -5.04664        1.68274        1.82633
H         -9.31322       -0.86314        0.39806
H         -4.98668       -2.56960       -0.88621
H         -2.51232       -2.45635       -0.92738
H         -0.05436       -2.37342       -0.98786
H          2.40654       -2.29304       -1.05058
H          2.33720        1.91367        1.63121
H          4.47679        0.93199        0.90660
H         -0.13124        1.82713        1.69099
