41
anti_O_O_2-CN_p-OMebenz.log	Energy: -754505.0840872
C         -2.90351       -1.81106        0.38568
C         -1.84671       -0.92110        0.19851
C         -0.48947       -1.37140        0.19703
C          0.51396       -0.46845        0.01043
C          1.96626       -0.54077       -0.05287
C          2.89499       -1.56494        0.05338
C          4.25181       -1.25060       -0.06327
O          5.10491       -2.30366        0.05102
C          6.48737       -2.05566       -0.05706
C          2.39392        0.77396       -0.27210
C          3.72695        1.10536       -0.39002
C          4.66058        0.07247       -0.28279
C          0.20525        0.91937       -0.18214
O          1.34372        1.65889       -0.35127
C         -1.05872        1.40854       -0.19112
C         -2.13312        0.48167        0.00265
C         -3.46074        0.90118        0.00728
C         -4.52575        0.00982        0.19511
C         -5.87386        0.46413        0.19566
C         -6.88302       -0.44486        0.38327
C         -8.32324       -0.37532        0.44638
C         -8.74156       -1.64373        0.65776
C        -10.06193       -2.15483        0.80177
N        -11.14743       -2.54437        0.91563
C         -6.56920       -1.82437        0.57397
O         -7.71743       -2.54915        0.74111
C         -5.30413       -2.32021        0.58393
C         -4.23825       -1.39245        0.39071
H         -2.68343       -2.86594        0.53269
H         -0.27917       -2.42702        0.34471
H          2.60283       -2.59573        0.22303
H          6.97627       -3.02304        0.06358
H          6.83865       -1.37394        0.72866
H          6.74814       -1.64018       -1.03933
H          4.04017        2.12921       -0.55972
H          5.71252        0.31560       -0.37316
H         -1.25981        2.46403       -0.33930
H         -3.68076        1.95607       -0.13973
H         -6.08399        1.51941        0.04824
H         -8.95532        0.49485        0.34838
H         -5.10421       -3.37582        0.73198
