40
anti_S_O_p-OMebenz_2-F.log	Energy: -961576.3344722
C         -3.76592        0.70769       -0.60977
C         -4.75562       -0.19950       -0.21758
C         -6.14203        0.12092       -0.33421
C         -7.07708       -0.79525        0.06096
C         -8.52585       -0.84430        0.09976
C         -8.80568       -2.05518        0.60987
F         -9.95393       -2.62838        0.86410
C         -6.64269       -2.05510        0.58256
O         -7.73773       -2.82158        0.91706
C         -5.34684       -2.42404        0.72074
C         -4.35287       -1.48057        0.31356
C         -2.99134       -1.77248        0.41903
C         -2.00779       -0.86306        0.02638
C         -0.61919       -1.16612        0.13694
C          0.32518       -0.25964       -0.25369
C          1.78056       -0.38232       -0.21865
C          2.53979       -1.45839        0.22408
C          3.93208       -1.38908        0.17966
O          4.58802       -2.48895        0.63360
C          5.99693       -2.47790        0.61361
C          2.42121        0.76853       -0.70816
C          3.80503        0.84155       -0.75410
C          4.56347       -0.23904       -0.30941
C         -0.08679        1.01349       -0.78234
S          1.28982        2.02598       -1.22252
C         -1.40207        1.34620       -0.90613
C         -2.40644        0.41385       -0.50349
H         -4.06744        1.67305       -1.01025
H         -6.43285        1.08746       -0.73501
H         -9.23659       -0.09319       -0.20563
H         -5.06516       -3.39152        1.12203
H         -2.68826       -2.73746        0.81926
H         -0.32541       -2.13273        0.53842
H          2.07636       -2.36153        0.60787
H          6.31067       -3.44269        1.01377
H          6.40357       -1.67653        1.24422
H          6.38561       -2.36726       -0.40712
H          4.30428        1.72846       -1.13142
H          5.64412       -0.17096       -0.34980
H         -1.70653        2.30929       -1.30588
