49
anti_C_NPh_2-OMe_3-CN.log	Energy: -791993.2383377
C         -2.47955       -1.81976       -1.03687
C         -3.40692       -0.91534       -0.52092
C         -4.80073       -1.04765       -0.78890
C         -5.67442       -0.14086       -0.25950
C         -7.11379        0.02897       -0.34600
C         -8.02259       -0.80168       -1.04883
N         -8.74688       -1.49594       -1.63282
C         -7.43184        1.13587        0.38789
C         -5.19547        0.93429        0.56565
N         -6.30854        1.69160        0.94671
C         -6.30131        2.84810        1.76771
C         -6.96869        3.99727        1.34682
C         -6.98532        5.12173        2.16532
C         -6.32066        5.10930        3.38828
C         -5.64743        3.96125        3.79846
C         -5.64318        2.82506        2.99729
C         -3.87059        1.11644        0.83630
C         -2.93501        0.18381        0.29662
C         -1.56792        0.30776        0.54021
C         -0.63545       -0.60016        0.02107
C          0.75164       -0.47901        0.26583
C          1.66510       -1.37983       -0.24928
C          3.07649       -1.25734       -0.00135
C          3.94835       -2.16406       -0.52561
O          5.29268       -2.15410       -0.36374
C          5.84819       -1.11722        0.41321
C          1.18815       -2.47676       -1.06082
C          2.15558       -3.40340       -1.58715
C          3.47622       -3.25726       -1.33344
C         -0.16289       -2.60984       -1.30989
C         -1.10711       -1.69542       -0.78952
H         -2.83291       -2.64560       -1.65037
H         -5.15384       -1.86185       -1.41556
H         -8.40391        1.56866        0.57911
H         -7.45702        4.01044        0.37704
H         -7.50780        6.01476        1.83703
H         -6.32724        5.99160        4.02031
H         -5.13436        3.94254        4.75492
H         -5.14680        1.91674        3.32330
H         -3.51551        1.94743        1.43713
H         -1.21319        1.13416        1.15231
H          1.10317        0.34912        0.87750
H          3.41424       -0.42756        0.60961
H          6.92541       -1.28631        0.41912
H          5.46813       -1.14370        1.44260
H          5.63461       -0.13362       -0.02459
H          1.80244       -4.23002       -2.19776
H          4.21478       -3.94901       -1.72465
H         -0.51591       -3.43730       -1.92171
