49
anti_C_O_m-OMebenz_tetClbenz.log	Energy: -1947970.7927341
C         -2.90122       -1.06541        0.88578
C         -1.70933       -0.63743        0.30138
C         -0.45693       -0.83082        0.96178
C          0.68900       -0.39769        0.35880
C          2.10805       -0.40332        0.68664
C          2.88011       -0.85391        1.75148
Cl         2.11016       -1.62266        3.09811
C          4.26844       -0.67942        1.71847
Cl         5.23780       -1.23610        3.03829
C          2.74032        0.21554       -0.39627
C          4.11055        0.40468       -0.46241
Cl         4.79782        1.17956       -1.84121
C          4.87845       -0.05221        0.61508
Cl         6.59145        0.16154        0.57901
C          0.61662        0.24076       -0.92095
O          1.86988        0.60389       -1.35991
C         -0.53496        0.45381       -1.59890
C         -1.75256        0.01004       -0.99041
C         -2.98426        0.18855       -1.61619
C         -4.18015       -0.24147       -1.02795
C         -5.43594       -0.06058       -1.66181
C         -6.61730       -0.47880       -1.09149
C         -7.92687       -0.29885       -1.73244
C         -8.08772        0.31538       -2.98092
C         -9.33054        0.47727       -3.57069
C         -9.09387       -0.75948       -1.07588
C        -10.34743       -0.59604       -1.67096
C        -10.47769        0.01681       -2.90991
O        -11.73894        0.12430       -3.39522
C        -11.91868        0.73994       -4.65121
C         -6.56442       -1.12589        0.20092
C         -7.79419       -1.57417        0.81860
C         -8.98553       -1.40246        0.21855
C         -5.35623       -1.31142        0.83287
C         -4.13606       -0.88419        0.25486
H         -2.86920       -1.55252        1.85775
H         -0.43860       -1.31781        1.93016
H         -0.54309        0.94217       -2.56710
H         -3.01803        0.67560       -2.58803
H         -5.43162        0.42879       -2.63066
H         -7.22357        0.68478       -3.52252
H         -9.39635        0.95999       -4.53876
H        -11.24320       -0.94859       -1.16863
H        -12.99183        0.72006       -4.84393
H        -11.39889        0.19167       -5.44731
H        -11.57280        1.78152       -4.64304
H         -7.72816       -2.05791        1.78952
H         -9.89961       -1.74499        0.69580
H         -5.33194       -1.79969        1.80465
