45
anti_O_NPh_2-Cl_3-OMe.log	Energy: -1021125.6864826
C          0.26547        1.38775        1.14512
C          1.64661        1.31655        0.92842
C          2.56496        2.04133        1.73592
C          3.90835        1.94373        1.48599
C          5.07881        2.54755        2.08448
O          5.08702        3.39821        3.14726
C          4.67883        4.71673        2.81737
C          6.16661        2.07801        1.42603
C          4.39454        1.09169        0.43302
N          5.78289        1.18160        0.43023
C          6.67562        0.51084       -0.43367
C          6.53266       -0.85759       -0.67239
C          7.42081       -1.50724       -1.52218
C          8.46723       -0.80816       -2.11803
C          8.61691        0.55249       -1.86471
C          7.71964        1.21582       -1.03511
C          3.54463        0.39385       -0.38180
C          2.14374        0.49313       -0.14909
C          1.22435       -0.19898       -0.94461
C         -0.15288       -0.12529       -0.73067
C         -1.07083       -0.84252       -1.55719
C         -2.41178       -0.74257       -1.31025
C         -3.61371       -1.29445       -1.90170
C         -4.62709       -0.79106       -1.17302
Cl        -6.31372       -1.02300       -1.31686
C         -2.86956        0.07677       -0.23091
O         -4.24230        0.03359       -0.16256
C         -2.05625        0.78310        0.59104
C         -0.64824        0.69512        0.35282
H         -0.10574        2.00658        1.95916
H          2.19313        2.66463        2.54455
H          5.37417        5.17313        2.10119
H          4.68469        5.28713        3.74800
H          3.66968        4.73030        2.38719
H          7.21309        2.27440        1.60952
H          5.74036       -1.40790       -0.17569
H          7.30307       -2.57119       -1.70418
H          9.16303       -1.32123       -2.77434
H          9.42749        1.10734       -2.32735
H          7.81380        2.28362       -0.86206
H          3.90876       -0.22242       -1.19743
H          1.59617       -0.81792       -1.75843
H         -0.68958       -1.45586       -2.36850
H         -3.69948       -1.96446       -2.74318
H         -2.44648        1.39272        1.39884
