36
anti_S_O_2-Cl_tetClbenz.log	Energy: -2269421.5012157
C         -2.89826       -1.80333        0.05196
C         -1.83240       -0.90216        0.06817
C         -0.48392       -1.35911       -0.04704
C          0.53221       -0.44701       -0.02736
C          1.98498       -0.50080       -0.11455
C          2.93518       -1.50619       -0.25382
Cl         2.42147       -3.15552       -0.36425
C          4.29245       -1.16876       -0.30224
Cl         5.48212       -2.41203       -0.47500
C          2.41017        0.82805       -0.02597
C          3.74381        1.19830       -0.07035
Cl         4.16995        2.86491        0.04709
C          4.69233        0.17843       -0.21076
Cl         6.36795        0.58934       -0.27081
C          0.23024        0.94580        0.10799
O          1.38056        1.70040        0.10669
C         -1.02376        1.44274        0.22136
C         -2.10778        0.50868        0.20350
C         -3.43181        0.92981        0.31409
C         -4.50033        0.02651        0.29768
C         -5.84905        0.46403        0.41075
C         -6.87710       -0.44278        0.39166
C         -8.29949       -0.20008        0.49228
C         -9.01243       -1.34003        0.43583
Cl       -10.72688       -1.47254        0.52119
C         -6.58428       -1.84597        0.25615
S         -8.05890       -2.80712        0.25745
C         -5.30654       -2.30913        0.14491
C         -4.22498       -1.38050        0.16275
H         -2.68849       -2.86559       -0.04997
H         -0.29019       -2.42093       -0.14814
H         -1.20726        2.50670        0.32214
H         -3.64159        1.99190        0.41614
H         -6.05469        1.52619        0.51248
H         -8.74221        0.78211        0.60052
H         -5.09319       -3.36921        0.04294
