45
anti_O_NPh_3-Cl_2-OMe.log	Energy: -1021133.1410064
C          0.98730        1.63793        0.07998
C         -0.20873        0.91584        0.05777
C         -1.47525        1.56750        0.11606
C         -2.62733        0.82794        0.09710
C         -4.02827        1.16771        0.12868
C         -4.70922       -0.01123        0.06988
O         -6.01439       -0.28723        0.07827
C         -6.86794        0.83819        0.18831
C         -2.54525       -0.61053        0.01925
N         -3.85127       -1.10075        0.00178
C         -4.23080       -2.46711        0.00647
C         -3.70020       -3.32437        0.97057
C         -4.04778       -4.67085        0.96399
C         -4.93916       -5.16014        0.01319
C         -5.47643       -4.29758       -0.93883
C         -5.11708       -2.95460       -0.95304
C         -1.36081       -1.28080       -0.05286
C         -0.15073       -0.52440       -0.03129
C          1.09613       -1.14701       -0.09517
C          2.29383       -0.42517       -0.07389
C          3.55632       -1.08390       -0.13973
C          4.69619       -0.33050       -0.11405
C          6.11696       -0.59800       -0.15799
Cl         6.85284       -2.15200       -0.26973
C          6.74831        0.58988       -0.09519
C          4.61699        1.09116       -0.02298
O          5.87582        1.63588       -0.01269
C          3.44633        1.77598        0.04244
C          2.23671        1.01629        0.01770
H          0.94358        2.72288        0.14763
H         -1.50997        2.65229        0.17056
H         -4.45234        2.15820        0.18694
H         -7.88503        0.44744        0.19234
H         -6.73004        1.51319       -0.66423
H         -6.67199        1.38124        1.11982
H         -3.02242       -2.92919        1.72063
H         -3.62904       -5.33584        1.71316
H         -5.21460       -6.21024        0.01399
H         -6.17060       -4.67350       -1.68425
H         -5.51923       -2.27957       -1.70026
H         -1.31911       -2.36283       -0.13005
H          1.13993       -2.23194       -0.16407
H          3.59913       -2.16702       -0.20896
H          7.79656        0.84630       -0.09902
H          3.42109        2.85835        0.11094
