51
anti_S_NPh_3-Cl_p-OMebenz.log	Energy: -1320195.3711587
C         -2.87696       -1.77642        0.13546
C         -1.82803       -0.85800        0.09712
C         -0.46709       -1.28492        0.03995
C          0.53307       -0.35966        0.00661
C          1.98236       -0.46514       -0.06624
C          2.84458       -1.54990       -0.10331
C          4.22039       -1.31882       -0.15349
O          5.00184       -2.43432       -0.19241
C          6.39814       -2.26285       -0.23173
C          2.48608        0.84929       -0.08276
C          3.85119        1.08666       -0.11923
C          4.71514       -0.00858       -0.15735
C          0.22533        1.04896        0.03343
N          1.42153        1.75887       -0.02056
C          1.54305        3.16754       -0.02538
C          0.96525        3.92181        0.99698
C          1.07824        5.30776        0.98274
C          1.78463        5.94483       -0.03420
C          2.36977        5.18924       -1.04685
C          2.24165        3.80446       -1.05216
C         -1.06024        1.50632        0.07399
C         -2.12495        0.55544        0.10989
C         -3.45997        0.95795        0.15725
C         -4.51345        0.03780        0.19499
C         -5.87048        0.46004        0.24386
C         -6.87763       -0.46735        0.28107
C         -8.31324       -0.27184        0.33320
Cl        -9.02561        1.30932        0.35853
C         -9.02688       -1.41212        0.35986
C         -6.56818       -1.86928        0.27065
S         -8.03142       -2.84907        0.32464
C         -5.27947       -2.31602        0.22390
C         -4.21396       -1.37138        0.18466
H         -2.64717       -2.83975        0.12591
H         -0.24590       -2.34889        0.01797
H          2.48126       -2.57235       -0.09038
H          6.82462       -3.26653       -0.25699
H          6.76746       -1.73720        0.65904
H          6.71439       -1.71494       -1.12953
H          4.24961        2.09559       -0.11199
H          5.78228        0.17788       -0.18699
H          0.43739        3.41513        1.79885
H          0.62382        5.89031        1.77838
H          1.87830        7.02632       -0.03776
H          2.91657        5.67979       -1.84641
H          2.67185        3.20960       -1.85195
H         -1.28921        2.56724        0.07388
H         -3.69091        2.02081        0.16516
H         -6.10104        1.52164        0.25138
H        -10.10389       -1.50075        0.39915
H         -5.04846       -3.37752        0.21592
