45
anti_C_C_3-CF3_tetFbenz.log	Energy: -1088014.9771372
C         -2.27429        1.38115        0.43792
C         -3.48645        0.71435        0.59071
C         -4.70881        1.42518        0.75753
C         -5.91632        0.78414        0.91065
C         -7.20108        1.48411        1.08626
C         -7.34668        2.87958        1.11688
F         -6.30462        3.71187        0.98486
C         -8.57568        3.49562        1.28539
F         -8.65602        4.82286        1.30677
C         -8.38652        0.71809        1.23721
C         -9.61797        1.35771        1.40638
F        -10.73172        0.63071        1.54838
C         -9.72835        2.73288        1.43264
F        -10.90597        3.32651        1.59444
C         -5.92684       -0.66829        0.89931
C         -7.17670       -1.37705        1.05826
C         -8.34151       -0.72818        1.21855
C         -4.75815       -1.37095        0.73923
C         -3.50445       -0.72480        0.58017
C         -2.31353       -1.42646        0.41768
C         -1.08865       -0.76026        0.26339
C          0.12334       -1.46571        0.09862
C          1.33308       -0.80978       -0.05289
C          2.60053       -1.48990       -0.22405
C          2.64641       -2.99462       -0.24464
F          1.89698       -3.50415       -1.24174
F          3.89143       -3.46559       -0.41128
F          2.17582       -3.52516        0.90104
C          3.75603       -0.78811       -0.36731
C          1.34936        0.63682       -0.04154
C          2.60022        1.32489       -0.19758
C          3.76063        0.64105       -0.35445
C          0.16755        1.33742        0.11871
C         -1.07003        0.68050        0.27410
H         -2.25801        2.46857        0.44568
H         -4.65116        2.50348        0.75969
H         -7.15035       -2.46296        1.04506
H         -9.27247       -1.26923        1.33722
H         -4.78872       -2.45803        0.73374
H         -2.32998       -2.51377        0.41006
H          0.08014       -2.54849        0.09412
H          4.69372       -1.31627       -0.49398
H          2.59340        2.41150       -0.18657
H          4.70255        1.16655       -0.47173
H          0.19037        2.42474        0.12579
