46
anti_C_S_tetFbenz_p-CNbenz.log	Energy: -1232112.7805925
C         -2.79443       -1.58448        0.09079
C         -1.73633       -0.70612       -0.13705
C         -0.39292       -1.05124        0.19693
C          0.62772       -0.17452       -0.03534
C          2.05371       -0.33688        0.23220
C          2.70761       -1.43064        0.79013
C          4.09152       -1.38645        0.96389
C          4.77100       -2.51295        1.53965
N          5.31806       -3.42307        2.00466
C          2.79992        0.79282       -0.14622
C          4.18161        0.84208        0.02496
C          4.82510       -0.25188        0.58155
C          0.34606        1.10860       -0.62202
S          1.80942        2.07478       -0.83081
C         -0.91864        1.48332       -0.95777
C         -2.00413        0.58333       -0.72456
C         -3.31585        0.92152       -1.05120
C         -4.37875        0.03950       -0.82243
C         -5.71345        0.38702       -1.15602
C         -6.77226       -0.46947       -0.93727
C         -8.16993       -0.14655       -1.26869
C         -8.59048        1.06324       -1.84415
F         -7.73364        2.04793       -2.14743
C         -9.91771        1.32409       -2.13851
F        -10.26149        2.48719       -2.68344
C         -9.17991       -1.10659       -0.99776
C        -10.51566       -0.82460       -1.30223
F        -11.46249       -1.73320       -1.04424
C        -10.89694        0.37439       -1.86715
F        -12.16951        0.62885       -2.15086
C         -6.49357       -1.76213       -0.34670
C         -7.57518       -2.68780       -0.10105
C         -8.84762       -2.38344       -0.40661
C         -5.20385       -2.11279       -0.01817
C         -4.11052       -1.24225       -0.23809
H         -2.59337       -2.55716        0.53389
H         -0.19977       -2.02513        0.63935
H          2.15501       -2.31486        1.09076
H          4.74884        1.71845       -0.27015
H          5.89997       -0.23798        0.72527
H         -1.12398        2.45362       -1.40037
H         -3.52015        1.89338       -1.49434
H         -5.87314        1.36111       -1.59382
H         -7.33183       -3.64894        0.34284
H         -9.65206       -3.08420       -0.21854
H         -5.01614       -3.08831        0.42441
