30
anti_S_O_2-F_2-F.log	Energy: -855595.4836847
C          1.07805       -1.34214       -0.00135
C          2.27097       -0.61447       -0.00155
C          3.53958       -1.27070       -0.00066
C          4.68176       -0.51991       -0.00089
C          6.10473       -0.80042       -0.00023
C          6.68408        0.41146       -0.00101
F          7.94674        0.75289       -0.00089
C          4.57853        0.90810       -0.00202
O          5.83859        1.46426       -0.00207
C          3.41131        1.59453       -0.00290
C          2.20326        0.82875       -0.00267
C          0.95352        1.44962       -0.00352
C         -0.23779        0.71900       -0.00333
C         -1.50966        1.35960       -0.00420
C         -2.66279        0.62084       -0.00400
C         -4.03681        1.07884       -0.00476
C         -4.89364        0.04700       -0.00426
F         -6.21576        0.11888       -0.00474
C         -2.57685       -0.81863       -0.00288
S         -4.17812       -1.55988       -0.00280
C         -1.38231       -1.47355       -0.00201
C         -0.17115       -0.71908       -0.00221
H          1.12551       -2.42893       -0.00051
H          3.57744       -2.35607        0.00019
H          6.60610       -1.75502        0.00065
H          3.38311        2.67877       -0.00374
H          0.90484        2.53625       -0.00436
H         -1.55405        2.44551       -0.00504
H         -4.34466        2.11625       -0.00565
H         -1.33016       -2.55859       -0.00117
