37
asym_S_m-OMebenz.log	Energy: -804335.2217262
C         -3.94215        0.62080       -0.29517
C         -4.88390       -0.39433       -0.13139
C         -6.29120       -0.14924       -0.22184
C         -7.18920       -1.16025       -0.05735
C         -6.74222       -2.48916        0.20948
C         -5.41144       -2.76408        0.30315
C         -4.43414       -1.73137        0.13700
C         -3.06614       -1.98319        0.22741
C         -2.11830       -0.96751        0.06370
C         -0.72002       -1.22482        0.15622
C          0.18864       -0.21577       -0.00708
C          1.64437       -0.27006        0.04892
C          2.47568       -1.37095        0.28389
C          3.84752       -1.21635        0.29812
C          2.23687        0.97862       -0.16916
C          3.61904        1.15951       -0.15948
C          4.42372        0.04655        0.07718
O          5.77751        0.07946        0.11422
C          6.41923        1.31715       -0.09862
C         -0.27871        1.11725       -0.27477
S          1.05611        2.25942       -0.44952
C         -1.60587        1.41041       -0.37211
C         -2.56945        0.37120       -0.20486
H         -4.28334        1.63366       -0.49843
H         -6.62868        0.86384       -0.42517
H         -8.25435       -0.96137       -0.12831
H         -7.47403       -3.28108        0.33750
H         -5.06754       -3.77505        0.50628
H         -2.72510       -2.99616        0.43073
H         -0.38889       -2.24017        0.35955
H          2.04381       -2.35260        0.45618
H          4.50858       -2.05681        0.47843
H          4.04206        2.14184       -0.33216
H          7.48869        1.11731       -0.02580
H          6.13556        2.05309        0.66458
H          6.19328        1.72088       -1.09385
H         -1.94897        2.42102       -0.57478
