31
asym_S_3-OMe.log	Energy: -707942.8819464
C          0.35410        1.60876       -0.36670
C         -0.73956        0.79374       -0.08859
C         -2.08312        1.19589       -0.38094
C         -3.13447        0.37823       -0.09935
C         -2.91805       -0.90235        0.49567
C         -1.65720       -1.32284        0.78951
C         -0.52176       -0.49483        0.51036
C          0.77806       -0.89842        0.80027
C          1.88340       -0.08202        0.52491
C          3.21023       -0.49444        0.82301
C          4.26563        0.33440        0.54543
C          5.68401        0.10602        0.76639
O          6.15605       -1.04424        1.32527
C          6.09293       -1.05161        2.74474
C          6.46107        1.12424        0.34566
C          4.03946        1.60987       -0.06619
S          5.55923        2.45229       -0.35629
C          2.78052        2.04311       -0.37147
C          1.66496        1.20797       -0.07739
H          0.18843        2.58301       -0.82159
H         -2.24484        2.17062       -0.83394
H         -4.14822        0.69451       -0.32601
H         -3.77064       -1.53906        0.71182
H         -1.48898       -2.29677        1.24192
H          0.94375       -1.87367        1.25304
H          3.38439       -1.47382        1.26062
H          6.74359       -0.27606        3.16741
H          6.43924       -2.03551        3.06536
H          5.06796       -0.88952        3.10089
H          7.54010        1.17068        0.40267
H          2.61129        3.00939       -0.83833
