37
asym_O_m-OMebenz.log	Energy: -601660.7384350
C         -3.78799        0.57974       -0.30631
C         -4.81910       -0.34151       -0.12291
C         -6.19737        0.02329       -0.24700
C         -7.18416       -0.89786       -0.06251
C         -6.86137       -2.25007        0.25951
C         -5.56148       -2.63727        0.38658
C         -4.49460       -1.70141        0.20092
C         -3.15534       -2.06801        0.32422
C         -2.11678       -1.14901        0.14144
C         -0.74887       -1.53913        0.27069
C          0.23447       -0.61108        0.08401
C          1.68699       -0.61553        0.12600
C          2.67664       -1.56830        0.37394
C          4.00573       -1.18755        0.32300
C          2.07531        0.69241       -0.16559
C          3.39505        1.11273       -0.22588
C          4.36603        0.14092        0.02595
O          5.69815        0.38371        0.00702
C          6.13152        1.69419       -0.28316
C         -0.11766        0.73885       -0.23827
O          1.00478        1.51635       -0.38634
C         -1.39519        1.17176       -0.37476
C         -2.44354        0.21756       -0.18398
H         -4.03598        1.61013       -0.55177
H         -6.44074        1.05391       -0.49237
H         -8.22622       -0.60820       -0.15957
H         -7.66236       -2.96914        0.40265
H         -5.31137       -3.66634        0.63181
H         -2.90866       -3.09888        0.56973
H         -0.51235       -2.57085        0.51605
H          2.41236       -2.59581        0.60412
H          4.80236       -1.89901        0.50966
H          3.63107        2.14310       -0.45771
H          7.22088        1.66535       -0.24568
H          5.76196        2.41266        0.45955
H          5.81126        2.01026       -1.28413
H         -1.62406        2.20336       -0.62001
