37
asym_S_p-OMebenz.log	Energy: -804334.1329032
C         -3.94519        0.62071       -0.22917
C         -4.87417       -0.40462       -0.05644
C         -6.28531       -0.16634       -0.08774
C         -7.17080       -1.18706        0.08407
C         -6.70733       -2.51971        0.29952
C         -5.37258       -2.78850        0.33619
C         -4.40800       -1.74553        0.16031
C         -3.03636       -1.99075        0.19278
C         -2.10171       -0.96458        0.01978
C         -0.69978       -1.21502        0.05284
C          0.19504       -0.19596       -0.11860
C          1.65481       -0.25054       -0.11790
C          2.47155       -1.36081        0.05811
C          3.85798       -1.21311        0.02620
O          4.57285       -2.35428        0.20744
C          5.97911       -2.26850        0.18322
C          2.23204        1.01347       -0.32697
C          3.61000        1.16474       -0.35905
C          4.42592        0.04968       -0.18212
C         -0.28502        1.14160       -0.33420
S          1.03380        2.29703       -0.53002
C         -1.61757        1.42718       -0.37357
C         -2.56842        0.37814       -0.19706
H         -4.29966        1.63605       -0.39320
H         -6.63576        0.84939       -0.25195
H         -8.23891       -0.99311        0.05823
H         -7.42973       -3.31910        0.43424
H         -5.01568       -3.80207        0.50000
H         -2.68181       -3.00617        0.35683
H         -0.35416       -2.23258        0.21709
H          2.05778       -2.35069        0.22133
H          6.34470       -3.28330        0.34429
H          6.35808       -1.61775        0.98203
H          6.34494       -1.90291       -0.78514
H          4.06024        2.13920       -0.51999
H          5.50136        0.17938       -0.20898
H         -1.97391        2.44026       -0.53702
