31
asym_O_2-OMe.log	Energy: -505273.9594056
C          0.83575       -1.37409       -0.00139
C          2.07104       -0.72792       -0.00193
C          3.30847       -1.44709       -0.00260
C          4.50089       -0.78834       -0.00312
C          4.53827        0.63850       -0.00300
C          3.38261        1.35946       -0.00236
C          2.10811        0.70696       -0.00180
C          0.90998        1.41841       -0.00115
C         -0.33512        0.77792       -0.00060
C         -1.55299        1.52236        0.00006
C         -2.75032        0.85813        0.00058
C         -4.14433        1.23603        0.00132
C         -4.83247        0.07113        0.00153
O         -6.14286       -0.12450        0.00211
C         -6.61616       -1.46878        0.00267
C         -2.74430       -0.57225        0.00044
O         -4.03935       -1.03890        0.00102
C         -1.62898       -1.34052       -0.00018
C         -0.36890       -0.66468       -0.00073
H          0.80686       -2.46180       -0.00148
H          3.27629       -2.53376       -0.00270
H          5.43293       -1.34563       -0.00363
H          5.49843        1.14586       -0.00342
H          3.40808        2.44626       -0.00226
H          0.94065        2.50604       -0.00106
H         -1.51103        2.60769        0.00015
H         -4.57280        2.22552        0.00164
H         -7.70266       -1.38980        0.00308
H         -6.27933       -2.00244        0.89569
H         -6.28004       -2.00296       -0.89029
H         -1.67809       -2.42429       -0.00026
