46
asym_NPh_diOMe.log	Energy: -709590.8753260
C          0.28716       -0.46978        1.10327
C         -0.94590       -0.58472        0.46636
C         -2.04487       -1.29246        1.05156
C         -3.24002       -1.38890        0.40579
C         -3.42160       -0.78265       -0.87445
C         -2.40183       -0.10057       -1.46540
C         -1.12848        0.02528       -0.82158
C         -0.06817        0.71654       -1.40115
C          1.17603        0.83613       -0.76743
C          2.25233        1.54946       -1.36521
C          3.45485        1.63342       -0.71381
C          4.70557        2.27796       -1.02628
O          4.96685        2.99793       -2.16127
C          5.16458        2.18477       -3.30660
C          5.55009        2.05170        0.02571
O          6.81031        2.40250        0.28872
C          7.50519        3.13469       -0.71168
C          3.62136        1.01689        0.57373
N          4.91461        1.29683        1.00955
C          5.50422        0.83900        2.21445
C          6.08996        1.74260        3.10050
C          6.65744        1.27890        4.28177
C          6.62402       -0.07778        4.59439
C          6.03073       -0.97537        3.71124
C          5.48095       -0.52269        2.51664
C          2.61254        0.33663        1.19315
C          1.35850        0.22342        0.52591
H          0.42405       -0.93074        2.07952
H         -1.90387       -1.75251        2.02653
H         -4.06521       -1.92840        0.86128
H         -4.38217       -0.87019       -1.37354
H         -2.53697        0.36251       -2.43976
H         -0.20718        1.17983       -2.37600
H          2.10420        2.03606       -2.32538
H          5.29062        2.86149       -4.15431
H          4.30392        1.52942       -3.48593
H          6.06245        1.56094       -3.19685
H          6.98481        4.06479       -0.95115
H          7.61846        2.53731       -1.62225
H          8.48655        3.34587       -0.28664
H          6.09856        2.79905        2.85696
H          7.11677        1.98451        4.96734
H          7.05927       -0.43390        5.52302
H          6.00584       -2.03548        3.94460
H          5.03583       -1.21764        1.81157
H          2.74173       -0.10615        2.17580
