28
asym_S_3-CN.log	Energy: -693966.0781144
C          0.39883        1.52852       -0.18324
C         -0.74282        0.75430        0.00178
C         -2.05761        1.26594       -0.24711
C         -3.15715        0.48637       -0.05755
C         -3.02195       -0.86198        0.39481
C         -1.79113       -1.38718        0.64295
C         -0.60668       -0.60270        0.45696
C          0.66380       -1.11361        0.70271
C          1.81744       -0.33937        0.51823
C          3.11317       -0.86485        0.76995
C          4.21920       -0.07927        0.57885
C          5.62329       -0.40947        0.77264
C          6.06526       -1.68988        1.22006
N          6.39076       -2.74136        1.58535
C          6.45651        0.62055        0.48503
C          4.07235        1.27234        0.12560
S          5.63980        2.05984       -0.03778
C          2.84544        1.81581       -0.12802
C          1.68066        1.01975        0.06264
H          0.29483        2.55510       -0.52751
H         -2.15805        2.29196       -0.59115
H         -4.14847        0.88548       -0.24951
H         -3.91254       -1.46592        0.53933
H         -1.68465       -2.41249        0.98711
H          0.76800       -2.14004        1.04695
H          3.21999       -1.89041        1.11369
H          7.53624        0.60935        0.55443
H          2.73855        2.84057       -0.47159
