27
asym_S_2-F.log	Energy: -698353.3431222
C          0.95815       -1.41487        0.00075
C          2.16421       -0.71781        0.00087
C          3.43043       -1.38638        0.00109
C          4.59419       -0.67933        0.00121
C          4.57407        0.74835        0.00111
C          3.39103        1.42250        0.00090
C          2.14372        0.71875        0.00077
C          0.91900        1.38180        0.00056
C         -0.29650        0.68646        0.00043
C         -1.54688        1.36549        0.00021
C         -2.72320        0.66243        0.00010
C         -4.08218        1.16302       -0.00013
C         -4.97049        0.15799       -0.00019
F         -6.28988        0.27040       -0.00039
C         -2.68153       -0.77748        0.00020
S         -4.30410       -1.46944        0.00003
C         -1.50641       -1.46878        0.00041
C         -0.27434       -0.75217        0.00053
H          0.97352       -2.50271        0.00082
H          3.44273       -2.47326        0.00116
H          5.54809       -1.19806        0.00137
H          5.51304        1.29370        0.00121
H          3.37279        2.50929        0.00083
H          0.90407        2.46963        0.00048
H         -1.55783        2.45225        0.00014
H         -4.35766        2.20947       -0.00024
H         -1.48751       -2.55489        0.00049
