37
asym_C_m-CNbenz.log	Energy: -589060.5963206
C         -2.82942        0.91746        0.47270
C         -3.98412        0.14455        0.41338
C         -5.29319        0.72653        0.45726
C         -6.40670       -0.05334        0.39747
C         -6.29334       -1.47392        0.28926
C         -5.06991       -2.06782        0.24445
C         -3.87004       -1.28625        0.30441
C         -2.60739       -1.86743        0.26055
C         -1.44040       -1.09186        0.31998
C         -0.15062       -1.67603        0.27568
C          1.00145       -0.92229        0.33324
C          2.34535       -1.51325        0.28804
C          2.56153       -2.89911        0.18075
C          3.83217       -3.43341        0.14019
C          3.47467       -0.66383        0.35409
C          4.76409       -1.21192        0.31248
C          4.94861       -2.58283        0.20672
C          6.27536       -3.13112        0.16528
N          7.34529       -3.57617        0.13182
C          0.87971        0.51260        0.44304
C          2.07611        1.32225        0.50572
C          3.30181        0.76907        0.46415
C         -0.36633        1.09860        0.48745
C         -1.55499        0.33437        0.42867
H         -2.91420        1.99880        0.55510
H         -5.37675        1.80700        0.53957
H         -7.39283        0.39970        0.43171
H         -7.19510       -2.07684        0.24308
H         -4.98062       -3.14786        0.16221
H         -2.52140       -2.94882        0.17819
H         -0.10366       -2.75720        0.19360
H          1.72031       -3.58029        0.12720
H          3.97628       -4.50516        0.05724
H          5.62640       -0.55399        0.36370
H          1.95850        2.39927        0.58820
H          4.19243        1.38923        0.51226
H         -0.44300        2.18045        0.57022
