30
asym_C_C.log	Energy: -434814.0158107
C          1.23197        1.39980        0.00843
C          2.44002        0.72022        0.00929
C          3.70165        1.40566        0.00915
C          4.87258        0.71555        0.00999
C          4.87305       -0.71620        0.01105
C          3.70259       -1.40708        0.01123
C          2.44050       -0.72248        0.01036
C          1.23290       -1.40287        0.01053
C          0.00004       -0.72229        0.00965
C         -1.23237       -1.40369        0.00979
C         -2.44043       -0.72411        0.00887
C         -3.70206       -1.40955        0.00898
C         -4.87298       -0.71944        0.00804
C         -2.44091        0.71859        0.00775
C         -3.70299        1.40319        0.00677
C         -4.87345        0.71231        0.00691
C         -1.23330        1.39898        0.00764
C         -0.00044        0.71840        0.00856
H          1.23128        2.48777        0.00763
H          3.69867        2.49260        0.00835
H          5.81968        1.24668        0.00987
H          5.82051       -1.24670        0.01171
H          3.70032       -2.49403        0.01202
H          1.23294       -2.49084        0.01135
H         -1.23169       -2.49166        0.01064
H         -3.69907       -2.49649        0.00984
H         -5.82009       -1.25057        0.00813
H         -3.70073        2.49014        0.00591
H         -5.82091        1.24281        0.00617
H         -1.23334        2.48695        0.00681
