45
asym_NPh_m-CNbenz.log	Energy: -720162.2195191
C         -3.69496        0.65182       -0.06399
C         -4.70613       -0.30551       -0.01605
C         -6.09274        0.04838       -0.07077
C         -7.06098       -0.90799       -0.02114
C         -6.71289       -2.28866        0.08664
C         -5.40613       -2.66734        0.14125
C         -4.35655       -1.69453        0.09218
C         -3.01160       -2.05097        0.14545
C         -1.99140       -1.09341        0.09718
C         -0.61849       -1.46857        0.14697
C          0.34941       -0.50562        0.10017
C          1.80128       -0.55193        0.11868
C          2.71922       -1.59349        0.20834
C          4.07610       -1.30271        0.21716
C          2.25143        0.78224        0.03333
C          3.60409        1.09577        0.05237
C          4.50753        0.03235        0.14269
C          5.91601        0.31673        0.16002
N          7.05240        0.54602        0.17210
C         -0.01279        0.88223        0.00383
N          1.15869        1.63955       -0.03663
C          1.22400        3.05294       -0.12323
C          0.59804        3.83725        0.84561
C          0.65851        5.22352        0.75395
C          1.35850        5.82809       -0.28716
C          1.98987        5.04142       -1.24683
C          1.91474        3.65435       -1.17507
C         -1.31457        1.29005       -0.05796
C         -2.34057        0.30133       -0.00955
H         -3.96395        1.70268       -0.14625
H         -6.35626        1.09968       -0.15305
H         -8.10875       -0.62594       -0.06356
H         -7.50073       -3.03483        0.12466
H         -5.13610       -3.71709        0.22318
H         -2.74351       -3.10237        0.22632
H         -0.35867       -2.52159        0.21798
H          2.38035       -2.62274        0.27371
H          4.81123       -2.09661        0.28433
H          3.95599        2.11994        0.00446
H          0.07422        3.35491        1.66499
H          0.16857        5.83247        1.50739
H          1.41207        6.91039       -0.35023
H          2.53309        5.50735       -2.06303
H          2.38249        3.03239       -1.93216
H         -1.58075        2.33853       -0.14675
