39
syn_C_S_diCN_3-OMe.log	Energy: -920039.6810704
C         -2.38191        1.36636        0.33468
C         -3.58662        0.68657        0.48345
C         -4.83130        1.38404        0.56495
C         -5.98656        0.67624        0.71058
S         -7.62021        1.31301        0.83210
C         -5.98278       -0.75980        0.78449
C         -7.33118       -1.27964        0.93901
O         -7.48067       -2.61581        1.02246
C         -8.80486       -3.08314        1.17517
C         -8.27620       -0.31489        0.97841
C         -4.81210       -1.45725        0.70991
C         -3.57699       -0.75905        0.55714
C         -2.36474       -1.43620        0.47757
C         -1.14794       -0.75337        0.32746
C          0.08155       -1.43915        0.24666
C          1.27578       -0.75689        0.09882
C          2.54696       -1.43722        0.01372
C          2.57037       -2.86862        0.08503
N          2.54725       -4.02586        0.14682
C          3.71600       -0.72731       -0.13310
C          4.97978       -1.40036       -0.21790
N          6.01786       -1.91045       -0.28984
C          1.27128        0.68476        0.02511
C          2.51965        1.37461       -0.12813
C          3.69679        0.70486       -0.20484
C          0.06989        1.36553        0.10344
C         -1.15714        0.68655        0.25417
H         -2.38706        2.45236        0.27917
H         -4.83393        2.46868        0.50921
H         -8.74367       -4.17006        1.22794
H         -9.42459       -2.78975        0.31817
H         -9.25311       -2.69360        2.09817
H         -9.34447       -0.43698        1.08578
H         -4.81522       -2.54151        0.76630
H         -2.35717       -2.52201        0.53287
H          0.08160       -2.52440        0.30247
H          2.50668        2.45934       -0.18264
H          4.63761        1.23050       -0.32067
H          0.06801        2.45144        0.04773
