39
syn_C_S_benz_2-Cl.log	Energy: -1117250.7387609
C          1.09907       -1.76987        0.88484
C          0.09893       -0.96518        0.34012
C         -1.28440       -1.24211        0.55929
C         -2.22495       -0.42678        0.00519
S         -3.97366       -0.58391        0.14637
C         -1.86863        0.71395       -0.80038
C         -3.03883        1.42073       -1.27507
C         -4.18131        0.84891       -0.85412
Cl        -5.77916        1.38895       -1.20470
C         -0.54733        0.99693       -1.02229
C          0.47247        0.17363       -0.46407
C          1.82612        0.43986       -0.67529
C          2.82881       -0.36734       -0.12903
C          4.20622       -0.10055       -0.34174
C          5.20082       -0.88886        0.19028
C          6.63229       -0.62487       -0.02230
C          7.09936        0.45696       -0.78806
C          8.45197        0.67996       -0.97072
C          7.58701       -1.48768        0.56228
C          8.95744       -1.24736        0.36710
C          9.39211       -0.17725       -0.38988
C          4.81720       -2.02836        0.99455
C          5.84647       -2.87054        1.56336
C          7.15166       -2.61534        1.35937
C          3.48646       -2.30446        1.21351
C          2.45493       -1.50052        0.67085
H          0.81914       -2.62853        1.49105
H         -1.56197       -2.09989        1.16506
H         -3.00265        2.30660       -1.89673
H         -0.26249        1.85355       -1.62747
H          2.10798        1.29821       -1.28128
H          4.45079        0.76385       -0.95080
H          6.39652        1.14023       -1.25210
H          8.78148        1.52469       -1.56804
H          9.67693       -1.92185        0.82444
H         10.45406       -0.00280       -0.53298
H          5.53470       -3.72084        2.16396
H          7.91388       -3.25723        1.79323
H          3.21404       -3.16497        1.82067
