36
syn_S_O_diCN_3-OMe.log	Energy: -918646.5371200
C         -0.04247        1.40018       -0.09922
C         -1.16122        0.57901        0.05624
C         -2.48334        1.09259       -0.10859
C         -3.51665        0.22668        0.05667
O         -4.84203        0.53276       -0.04391
C         -3.35009       -1.15527        0.37946
C         -4.70633       -1.67043        0.45809
O         -5.08361       -2.93267        0.77600
C         -4.79806       -3.88771       -0.23764
C         -5.52567       -0.63184        0.19630
C         -2.09707       -1.67114        0.55771
C         -0.96732       -0.81444        0.39608
C          0.33304       -1.29382        0.56089
C          1.45167       -0.47025        0.40496
C          2.77004       -0.97069        0.57392
C          3.84333       -0.13384        0.41215
C          5.25369       -0.44092        0.53737
C          5.73307       -1.74222        0.86680
N          6.07304       -2.81708        1.13647
C          6.05444        0.63930        0.30705
C          7.47480        0.65314        0.35494
N          8.63331        0.68009        0.38988
C          3.64188        1.24564        0.07323
S          5.17150        2.10168       -0.07656
C          2.39208        1.76591       -0.09770
C          1.25801        0.91773        0.06428
H         -0.18909        2.44690       -0.35455
H         -2.64773        2.13697       -0.35092
H         -5.11297       -4.85587        0.15378
H         -3.72708       -3.91886       -0.47144
H         -5.35602       -3.65958       -1.15389
H         -6.60188       -0.56220        0.16143
H         -1.94549       -2.71165        0.82921
H          0.48152       -2.33989        0.81819
H          2.92154       -2.01577        0.83095
H          2.24170        2.81035       -0.35401
