52
syn_NPh_NPh_diCl_diCl.log	Energy: -1946937.3295307
C          0.70368        0.36770        0.52365
C         -0.56165        0.03544        0.03282
C         -1.72553        0.74763        0.44207
C         -2.93121        0.37413       -0.08018
N         -4.20182        0.89278        0.15798
C         -4.48881        1.98524        1.02079
C         -3.95559        3.24008        0.73115
C         -4.20735        4.30722        1.58660
C         -5.00240        4.12596        2.71544
C         -5.53739        2.87131        2.99563
C         -5.27301        1.79441        2.15636
C         -3.06398       -0.71413       -1.01004
C         -4.46928       -0.81031       -1.30945
Cl        -5.19190       -1.93974       -2.38522
C         -5.10580        0.15717       -0.59943
Cl        -6.77329        0.53386       -0.59715
C         -1.96098       -1.41401       -1.41665
C         -0.68069       -1.05571       -0.90889
C          0.47355       -1.73972       -1.29841
C          1.73892       -1.40662       -0.80870
C          2.90290       -2.11366       -1.22191
C          4.12154       -1.75511       -0.71375
C          5.46384       -2.23701       -0.91343
Cl         5.92145       -3.53903       -1.93865
C          6.28780       -1.48545       -0.13776
Cl         7.97964       -1.63804        0.05388
C          4.22525       -0.67565        0.22989
N          5.56848       -0.52787        0.56738
C          6.07866        0.43172        1.48351
C          6.94766        1.42802        1.04408
C          7.43018        2.36541        1.95101
C          7.02884        2.32216        3.28367
C          6.14883        1.33230        3.71389
C          5.67818        0.37894        2.81755
C          3.13835        0.03816        0.64818
C          1.85793       -0.31714        0.13496
H          0.79328        1.18783        1.23273
H         -1.64153        1.56365        1.15299
H         -3.35132        3.36854       -0.16142
H         -3.79082        5.28446        1.36328
H         -5.20459        4.96243        3.37719
H         -6.15427        2.72572        3.87685
H         -5.66760        0.80741        2.37472
H         -2.05268       -2.23865       -2.11763
H          0.38395       -2.55984       -2.00738
H          2.81564       -2.92698       -1.93655
H          7.23723        1.46285       -0.00116
H          8.11300        3.13798        1.61166
H          7.40155        3.06037        3.98697
H          5.83601        1.29370        4.75266
H          5.00436       -0.40854        3.14025
H          3.23332        0.85871        1.35247
