50
syn_S_NPh_3-CF3_benz.log	Energy: -1171406.7806703
C         -3.35034        1.62910       -0.29790
C         -2.06636        1.08390       -0.25128
C         -0.91495        1.90477       -0.05525
C          0.31256        1.30959       -0.01502
N          1.57230        1.88151        0.14881
C          1.82829        3.26119        0.33603
C          1.22874        3.94279        1.39569
C          1.47347        5.30051        1.57058
C          2.33081        5.97632        0.70608
C          2.93587        5.29090       -0.34410
C          2.67843        3.93805       -0.53895
C          0.48171       -0.11238       -0.18115
C          1.91142       -0.36840       -0.10802
C          2.67518       -1.52889       -0.18559
C          4.05656       -1.43623       -0.05717
C          2.53945        0.87503        0.09298
C          3.92019        0.97811        0.23438
C          4.66503       -0.19438        0.15371
C         -0.60399       -0.91499       -0.36953
C         -1.91211       -0.34387       -0.40650
C         -3.04496       -1.13438       -0.59426
C         -4.33160       -0.58743       -0.63906
C         -5.48005       -1.40250       -0.83063
C         -6.72817       -0.83679       -0.87101
C         -8.02408       -1.46667       -1.05349
C         -8.19521       -2.93814       -1.23645
F         -7.71225       -3.62476       -0.18418
F         -9.48355       -3.28068       -1.38566
F         -7.52974       -3.38064       -2.31965
C         -9.04920       -0.59251       -1.04002
C         -6.86962        0.58435       -0.71924
S         -8.56258        1.06361       -0.80859
C         -5.79319        1.40271       -0.53316
C         -4.48659        0.83640       -0.48724
H         -3.47102        2.70405       -0.18351
H         -1.03305        2.97830        0.05242
H          0.57984        3.40151        2.07713
H          1.00257        5.82828        2.39430
H          2.52665        7.03427        0.85027
H          3.60095        5.81344       -1.02482
H          3.12596        3.40041       -1.36916
H          2.19723       -2.49196       -0.34062
H          4.66699       -2.33155       -0.11638
H          4.39888        1.93602        0.40759
H          5.74439       -0.14028        0.26026
H         -0.49206       -1.98843       -0.49804
H         -2.92583       -2.20939       -0.71042
H         -5.35495       -2.47486       -0.94408
H        -10.09771       -0.83093       -1.15649
H         -5.91046        2.47656       -0.41945
