43
syn_C_O_diCN_diOMe.log	Energy: -789203.0489534
C         -2.13011        0.38187        2.14271
C         -3.35505        0.44887        1.48992
C         -4.54743        0.82721        2.18915
C         -5.70132        0.86525        1.48135
O         -6.93207        1.19534        1.96496
C         -5.78913        0.55084        0.08733
C         -7.18155        0.73634       -0.25290
O         -7.63011        0.53693       -1.50843
C         -8.95637        0.95167       -1.78422
C         -7.80526        1.09966        0.89439
O         -9.08913        1.33203        1.16867
C         -9.35899        2.61328        1.74221
C         -4.67537        0.19097       -0.61074
C         -3.42102        0.12870        0.07505
C         -2.25490       -0.23483       -0.58925
C         -1.01609       -0.30220        0.06831
C          0.16404       -0.67097       -0.60845
C          1.37982       -0.73446        0.04988
C          2.60199       -1.10908       -0.62150
C          2.55398       -1.42539       -2.01878
N          2.47448       -1.67347       -3.14829
C          3.79375       -1.16239        0.06431
C          5.00929       -1.53394       -0.60044
N          6.01009       -1.82957       -1.10455
C          1.44801       -0.41867        1.45638
C          2.71598       -0.49054        2.12199
C          3.84660       -0.84661        1.46164
C          0.29374       -0.05549        2.12778
C         -0.95206        0.01444        1.47260
H         -2.07985        0.62036        3.20249
H         -4.51605        1.06969        3.24582
H         -9.08429        2.02081       -1.57315
H         -9.68281        0.38094       -1.19725
H         -9.11184        0.76769       -2.84769
H        -10.44075        2.66497        1.86381
H         -9.01857        3.40914        1.06976
H         -8.86951        2.71497        2.71432
H         -4.72672       -0.04695       -1.66831
H         -2.30134       -0.47509       -1.64864
H          0.10938       -0.90851       -1.66748
H          2.75747       -0.25149        3.18079
H          4.80282       -0.89957        1.96932
H          0.34650        0.18215        3.18761
