42
syn_C_O_3-CF3_diCF3.log	Energy: -1164121.4340634
C         -1.98301        0.74787        2.11988
C         -3.23761        0.73007        1.51908
C         -4.37202        1.33067        2.15036
C         -5.55307        1.26524        1.48998
O         -6.74473        1.78423        1.92661
C         -5.73558        0.64076        0.21837
C         -7.14765        0.81512       -0.07640
C         -7.86105        0.36281       -1.31141
F         -7.17021       -0.61870       -1.91747
F         -9.08151       -0.11680       -1.03938
F         -8.00275        1.35598       -2.19977
C         -7.65813        1.50797        0.96440
C         -9.05255        1.98049        1.27815
F         -9.00886        3.10734        1.99294
F         -9.73652        2.21897        0.15681
F         -9.72133        1.06586        1.98979
C         -4.67077        0.05626       -0.40804
C         -3.39176        0.08969        0.22688
C         -2.27916       -0.48982       -0.37816
C         -1.01408       -0.47183        0.22604
C          0.11033       -1.06052       -0.39278
C          1.35975       -1.04400        0.20292
C          2.54195       -1.63322       -0.39159
C          2.44826       -2.30913       -1.73380
F          1.57784       -3.33740       -1.71605
F          2.02447       -1.46132       -2.69132
F          3.62766       -2.80146       -2.14066
C          3.74187       -1.58468        0.24521
C          1.50880       -0.40572        1.49268
C          2.80155       -0.38506        2.11829
C          3.87796       -0.95218        1.51976
C          0.41298        0.17399        2.10628
C         -0.86369        0.16351        1.50869
H         -1.86503        1.22708        3.08880
H         -4.28146        1.81651        3.11549
H         -4.77573       -0.42803       -1.37191
H         -2.39379       -0.97029       -1.34686
H         -0.03365       -1.53128       -1.35812
H          4.61419       -2.03158       -0.21693
H          2.89573        0.09815        3.08702
H          4.85182       -0.93324        1.99767
H          0.53680        0.65108        3.07571
