51
syn_O_NPh_2-Cl_m-OMebenz.log	Energy: -1117520.9379314
C         -3.50410        1.25862       -0.17600
C         -2.19023        0.78914       -0.13510
C         -1.08029        1.68532       -0.07325
C          0.17864        1.16258       -0.03104
N          1.41066        1.81644        0.01781
C          1.59397        3.21908        0.05609
C          1.00324        3.97169        1.07179
C          1.17785        5.35105        1.10075
C          1.95703        5.98088        0.13353
C          2.55331        5.22617       -0.87328
C          2.36475        3.84900       -0.92189
C          0.42510       -0.25754       -0.06450
C          1.86780       -0.42275       -0.03159
C          2.71183       -1.53305       -0.02774
C          4.08157       -1.34921        0.02829
C          2.42878        0.86307        0.01755
C          3.80448        1.07644        0.08609
C          4.62375       -0.05233        0.08891
O          5.97742        0.00180        0.15000
C          6.58993        1.26920        0.21841
C         -0.62155       -1.13030       -0.12373
C         -1.96056       -0.63528       -0.15689
C         -3.05566       -1.49718       -0.21520
C         -4.37336       -1.02957       -0.25499
C         -5.47787       -1.92991       -0.31464
C         -6.74973       -1.42633       -0.35286
C         -8.08268       -1.99041       -0.41478
C         -8.91220       -0.93060       -0.42542
Cl       -10.61840       -0.86107       -0.48919
C         -6.94347       -0.01125       -0.33228
O         -8.28667        0.27625       -0.37768
C         -5.93901        0.89900       -0.27625
C         -4.60249        0.39632       -0.23536
H         -3.67989        2.33202       -0.16151
H         -1.25503        2.75666       -0.06630
H          0.41557        3.46833        1.83310
H          0.71337        5.93354        1.89057
H          2.09784        7.05685        0.16358
H          3.15573        5.71219       -1.63474
H          2.80381        3.25458       -1.71725
H          2.29977       -2.53728       -0.06576
H          4.76590       -2.19008        0.03121
H          4.20401        2.08102        0.14343
H          7.66367        1.08264        0.25857
H          6.28324        1.81661        1.11898
H          6.36063        1.87536       -0.66769
H         -0.45434       -2.20399       -0.15169
H         -2.87931       -2.57073       -0.23123
H         -5.29298       -3.00021       -0.32895
H         -8.36947       -3.03019       -0.44643
H         -6.13323        1.96605       -0.26294
