45
syn_C_NPh_2-CN_3-F.log	Energy: -782395.0167966
C         -2.37956        1.32171        0.58510
C         -3.59395        0.63611        0.58526
C         -4.82873        1.32248        0.77689
C         -5.98949        0.60014        0.76018
N         -7.30880        1.00018        0.93361
C         -7.77361        2.31447        1.16615
C         -7.33432        3.36766        0.36201
C         -7.79987        4.65634        0.59839
C         -8.71985        4.89838        1.61513
C         -9.16800        3.84246        2.40393
C         -8.69008        2.55417        2.19089
C         -5.98719       -0.83242        0.58629
C         -7.36540       -1.22692        0.68149
F         -7.79814       -2.48280        0.56024
C         -8.12628       -0.13134        0.89225
C         -4.81869       -1.51622        0.39928
C         -3.58723       -0.80057        0.38602
C         -2.37093       -1.45349        0.19571
C         -1.15176       -0.76293        0.19346
C          0.08166       -1.42148        0.00110
C          1.27917       -0.72852        0.00239
C          2.53248       -1.39340       -0.19223
C          3.70304       -0.69050       -0.18714
C          4.95076       -1.37244       -0.38357
N          5.96349       -1.91488       -0.54132
C          1.27669        0.70259        0.20456
C          2.53664        1.39614        0.20114
C          3.70526        0.73623        0.01405
C          0.07570        1.35865        0.39377
C         -1.15637        0.66613        0.39523
H         -2.38093        2.39877        0.73648
H         -4.82446        2.39498        0.94075
H         -6.64751        3.16875       -0.45427
H         -7.45396        5.47210       -0.02900
H         -9.08709        5.90454        1.79053
H         -9.88237        4.02238        3.20141
H         -9.01141        1.73390        2.82569
H         -9.19788       -0.04061        0.98656
H         -4.81765       -2.59434        0.27061
H         -2.36739       -2.53079        0.04592
H          0.08531       -2.49844       -0.15101
H          2.54070       -2.46856       -0.34462
H          2.53434        2.47182        0.35331
H          4.65300        1.26356        0.01234
H          0.07225        2.43557        0.54621
