40
syn_S_O_3-Cl_p-OMebenz.log	Energy: -1187712.9848670
C         -3.37089        1.25419        0.31227
C         -2.07209        0.75370        0.23446
C         -0.93783        1.57665        0.52645
C          0.29217        1.01477        0.42753
O          1.47768        1.65351        0.66975
C          0.50945       -0.35119        0.04775
C          1.95491       -0.52100        0.07132
C          2.81517       -1.57694       -0.18816
C          4.19069       -1.36515       -0.05884
O          4.97336       -2.44450       -0.32920
C          6.36982       -2.29904       -0.21718
C          2.46840        0.72398        0.45339
C          3.82117        0.95377        0.58700
C          4.68594       -0.11115        0.32524
C         -0.55270       -1.15655       -0.23530
C         -1.87780       -0.62587       -0.14976
C         -2.99218       -1.41485       -0.43056
C         -4.29570       -0.91260       -0.35223
C         -5.42552       -1.72565       -0.64040
C         -6.68748       -1.20104       -0.55357
C         -7.97023       -1.83103       -0.79691
Cl        -8.10185       -3.49186       -1.27733
C         -9.02770       -1.01892       -0.61766
C         -6.87125        0.17060       -0.17152
S         -8.57824        0.60044       -0.13364
C         -5.81204        0.98379        0.11310
C         -4.48932        0.46208        0.03026
H         -3.51969        2.29207        0.60108
H         -1.06797        2.61369        0.81634
H          2.45592       -2.55599       -0.48660
H          6.79455       -3.27009       -0.47439
H          6.66834       -2.03489        0.80589
H          6.75486       -1.54180       -0.91280
H          4.20095        1.92467        0.88420
H          5.75222        0.05266        0.42559
H         -0.41353       -2.19444       -0.52493
H         -2.84497       -2.45309       -0.71952
H         -5.28000       -2.76285       -0.92894
H        -10.07052       -1.27612       -0.74274
H         -5.95672        2.02093        0.40175
