33
syn_O_O_3-Cl_3-CF3.log	Energy: -1028247.9983608
C         -0.02132        1.47521        0.07913
C         -1.15200        0.65975        0.15955
C         -2.46808        1.20928        0.07236
C         -3.50879        0.34316        0.16056
O         -4.84113        0.66877        0.10002
C         -3.36257       -1.06558        0.33304
C         -4.72253       -1.56647        0.37189
C         -5.14579       -2.97863        0.53622
F         -4.65978       -3.75683       -0.44696
F         -4.69686       -3.49678        1.69305
F         -6.48354       -3.09599        0.52733
C         -5.52669       -0.49533        0.22973
C         -2.11636       -1.61874        0.41926
C         -0.97680       -0.76445        0.33418
C          0.31931       -1.27834        0.41677
C          1.45129       -0.46362        0.33653
C          2.76465       -1.01333        0.42399
C          3.83689       -0.17161        0.33976
C          5.27508       -0.31945        0.38099
Cl         6.13509       -1.79802        0.57368
C          5.80418        0.91097        0.24109
C          3.63930        1.23178        0.16720
O          4.84658        1.87509        0.10908
C          2.41634        1.81443        0.07720
C          1.27447        0.96050        0.16190
H         -0.15399        2.54650       -0.05224
H         -2.61851        2.27529       -0.05884
H         -6.60255       -0.41002        0.20223
H         -1.98078       -2.68770        0.55035
H          0.45177       -2.34976        0.54823
H          2.89667       -2.08320        0.55528
H          6.82717        1.25365        0.21636
H          2.30194        2.88503       -0.05377
