34
syn_S_O_2-F_3-OMe.log	Energy: -865178.0976157
C          0.93614       -1.30405        0.17236
C          2.08771       -0.51927        0.06376
C          3.38967       -1.10030        0.13725
C          4.45626       -0.26622        0.02563
O          5.77149       -0.63518        0.05568
C          4.34100        1.14484       -0.15581
C          5.71589        1.60949       -0.22471
O          6.14058        2.88205       -0.42694
C          5.91614        3.73979        0.68315
C          6.49714        0.51859       -0.09000
C          3.10576        1.72589       -0.24418
C          1.94461        0.90564       -0.13253
C          0.65929        1.45095       -0.21044
C         -0.48894        0.66517       -0.10234
C         -1.79511        1.23000       -0.18248
C         -2.90555        0.43732       -0.07304
C         -4.30283        0.81543       -0.12757
C         -5.10185       -0.25130        0.02037
F         -6.42609       -0.25208        0.01879
C         -2.74099       -0.98227        0.12534
S         -4.29956       -1.80195        0.23789
C         -1.51306       -1.56547        0.20782
C         -0.34384       -0.75421        0.09562
H          1.04235       -2.37639        0.32024
H          3.51371       -2.16957        0.27186
H          6.25989        4.73060        0.38254
H          6.48517        3.40056        1.55756
H          4.85292        3.78645        0.94791
H          7.57009        0.40388       -0.09397
H          2.99298        2.79368       -0.40840
H          0.55200        2.52309       -0.36023
H         -1.89812        2.30149       -0.33249
H         -4.66640        1.82478       -0.26923
H         -1.40193       -2.63569        0.35696
