33
syn_C_S_diCl_2-F.log	Energy: -1371506.5973090
C          0.90516       -1.60373       -0.65880
C         -0.23629       -0.87751       -0.34147
C         -1.54495       -1.37827       -0.63025
C         -2.63274       -0.63206       -0.30102
S         -4.32129       -1.06776       -0.57044
C         -2.51641        0.66096        0.33618
C         -3.81303        1.25640        0.58484
C         -4.80411        0.45877        0.16118
F         -6.10184        0.70454        0.23840
C         -1.27543        1.15774        0.62050
C         -0.10085        0.41357        0.29507
C          1.17168        0.89973        0.57531
C          2.32826        0.17039        0.25695
C          3.61895        0.66472        0.54195
C          4.75768       -0.05516        0.22790
C          6.09504        0.42132        0.50578
Cl         6.28888        1.97056        1.26959
C          7.18346       -0.32993        0.17502
Cl         8.80566        0.20494        0.49149
C          4.61993       -1.34609       -0.40817
C          5.80054       -2.09227       -0.73349
C          7.03368       -1.60746       -0.45487
C          3.35824       -1.83774       -0.69101
C          2.19064       -1.11459       -0.37639
H          0.80331       -2.57497       -1.13758
H         -1.64489       -2.34830       -1.10854
H         -3.97316        2.21953        1.05127
H         -1.16781        2.12744        1.09882
H          1.27636        1.87063        1.05384
H          3.70694        1.63455        1.01929
H          5.68891       -3.06118       -1.21110
H          7.92909       -2.16759       -0.69872
H          3.26351       -2.80967       -1.16964
