43
syn_C_O_3-OMe_diCF3.log	Energy: -1024523.9974456
C         -2.02457        1.15532        1.92523
C         -3.31342        1.04364        1.41161
C         -4.39509        1.81208        1.94592
C         -5.61474        1.63925        1.38126
O         -6.76815        2.28564        1.74821
C         -5.88512        0.74788        0.29966
C         -7.30721        0.89918        0.04629
C         -8.09070        0.20511       -1.02069
F         -7.51095       -0.96616       -1.33884
F         -9.34524       -0.06118       -0.63523
F         -8.15630        0.93216       -2.14534
C         -7.74190        1.82963        0.92351
C         -9.10682        2.40951        1.18536
F         -8.99808        3.62623        1.72337
F         -9.80429        2.51268        0.05072
F         -9.80305        1.64333        2.03349
C         -4.87254       -0.00307       -0.22902
C         -3.55850        0.12989        0.31264
C         -2.49489       -0.61183       -0.19816
C         -1.19764       -0.49936        0.31833
C         -0.12018       -1.25201       -0.20138
C          1.15330       -1.13193        0.31628
C          2.26367       -1.90007       -0.21083
O          1.92972       -2.72223       -1.23216
C          2.94985       -3.50810       -1.80662
C          3.51490       -1.76636        0.31488
C          1.40511       -0.22341        1.41053
C          2.74021       -0.11677        1.93121
C          3.74267       -0.85956        1.39971
C          0.35559        0.51631        1.92440
C         -0.95468        0.40889        1.40995
H         -1.84046        1.84068        2.74924
H         -4.23661        2.50231        2.76707
H         -5.04657       -0.69247       -1.04740
H         -2.67638       -1.29830       -1.02193
H         -0.30003       -1.93694       -1.02329
H          3.74002       -2.88046       -2.23743
H          2.47453       -4.08815       -2.59809
H          3.39013       -4.18948       -1.06784
H          4.35185       -2.33550       -0.07152
H          2.92586        0.56737        2.75388
H          4.75051       -0.77655        1.79551
H          0.54112        1.20152        2.74837
