57
syn_NPh_NPh_2-CF3_diCN.log	Energy: -1120543.4639704
C          0.52552       -0.98266        0.06860
C          1.74063       -0.29308        0.10350
C          2.98384       -0.98228        0.03048
C          4.13408       -0.24418        0.06624
N          5.46349       -0.66098        0.02391
C          5.90771       -2.00688       -0.11193
C          5.48929       -2.75450       -1.21139
C          5.91310       -4.07197       -1.34187
C          6.76373       -4.63143       -0.39146
C          7.18431       -3.87417        0.69802
C          6.74874       -2.56201        0.84921
C          4.12774        1.18447        0.19035
C          5.51207        1.59611        0.22172
C          5.99392        2.92453        0.33126
N          6.34938        4.02500        0.42324
C          6.27071        0.45469        0.11868
C          7.69043        0.35884        0.08520
N          8.84701        0.29009        0.06549
C          2.94465        1.87113        0.26305
C          1.72167        1.14995        0.21713
C          0.48906        1.80638        0.28466
C         -0.72429        1.11665        0.24790
C         -1.96809        1.80494        0.31617
C         -3.13874        1.09389        0.27987
C         -4.53102        1.46321        0.32805
C         -5.24535        0.31344        0.25055
C         -6.73461        0.18464        0.27128
F         -7.29962        1.36871        0.53546
F         -7.22187       -0.23816       -0.91056
F         -7.14772       -0.68809        1.20254
C         -3.10048       -0.34117        0.17248
N         -4.41155       -0.79563        0.14815
C         -4.78348       -2.17087        0.11298
C         -4.48570       -2.98312        1.20575
C         -4.81768       -4.33254        1.16900
C         -5.45404       -4.86483        0.05007
C         -5.74946       -4.04775       -1.03738
C         -5.40555       -2.69993       -1.01452
C         -1.93253       -1.04848        0.09959
C         -0.70649       -0.32707        0.13751
H          0.53917       -2.06693       -0.01547
H          3.00166       -2.06456       -0.04666
H          4.84537       -2.29835       -1.95667
H          5.58908       -4.65717       -2.19660
H          7.10060       -5.65730       -0.50158
H          7.84742       -4.30617        1.44043
H          7.05677       -1.97083        1.70556
H          2.93320        2.95315        0.35893
H          0.47615        2.89069        0.36894
H         -1.97307        2.88853        0.39515
H         -4.94102        2.45788        0.41569
H         -4.00136       -2.54866        2.07463
H         -4.58800       -4.96645        2.01972
H         -5.71930       -5.91725        0.02610
H         -6.24170       -4.46080       -1.91217
H         -5.61843       -2.05525       -1.85963
H         -1.92580       -2.13057        0.01367
