48
syn_S_NPh_2-OMe_3-CF3.log	Energy: -1146858.9741545
C          1.98068       -0.91959        0.06928
C          3.02069        0.01704        0.03286
C          4.38389       -0.39126        0.04026
C          5.35039        0.57532        0.00988
N          6.74255        0.46282       -0.00897
C          7.49583       -0.73549        0.03693
C          7.22014       -1.69816        1.00858
C          7.96895       -2.86891        1.04818
C          9.00383       -3.07431        0.13929
C          9.28320       -2.10460       -0.81948
C          8.52503       -0.94030       -0.88148
C          5.03555        1.97542       -0.05577
C          6.30274        2.66790       -0.11946
C          6.50001        4.13333       -0.17991
F          5.99065        4.75702        0.90059
F          7.80429        4.45530       -0.25292
F          5.88859        4.67934       -1.24988
C          7.28158        1.72835       -0.09237
C          3.72971        2.38896       -0.06451
C          2.68879        1.42179       -0.01366
C          1.34078        1.80034       -0.01707
C          0.30693        0.86552        0.02115
C         -1.06357        1.25926        0.01716
C         -2.06225        0.32238        0.05393
C         -3.49257        0.51209        0.05583
C         -4.17560       -0.65194        0.09793
O         -5.51139       -0.74092        0.11083
C         -6.10788       -2.02588        0.13768
C         -1.70538       -1.07442        0.09718
S         -3.13903       -2.09793        0.13968
C         -0.41295       -1.50042        0.10264
C          0.64104       -0.53658        0.06465
H          2.22751       -1.97871        0.10226
H          4.62929       -1.44827        0.06007
H          6.43401       -1.51726        1.73446
H          7.75144       -3.61674        1.80451
H          9.59049       -3.98665        0.17852
H         10.08507       -2.25940       -1.53469
H          8.71598       -0.19542       -1.64813
H          8.35436        1.85972       -0.10136
H          3.47996        3.44428       -0.11797
H          1.09415        2.85921       -0.05178
H         -1.30627        2.31812       -0.01587
H         -3.98243        1.47686        0.02657
H         -7.18425       -1.85468        0.14180
H         -5.82332       -2.57518        1.04287
H         -5.83479       -2.60740       -0.75068
H         -0.16262       -2.55712        0.13505
