32
syn_S_O_diCN_2-F.log	Energy: -909063.7601119
C          0.90805       -1.57532       -0.00056
C         -0.25717       -0.80948        0.00077
C         -1.54744       -1.42698       -0.00024
C         -2.62402       -0.60633        0.00118
O         -3.93867       -1.00936        0.00052
C         -2.55855        0.82565        0.00360
C         -3.93745        1.27135        0.00438
C         -4.65560        0.13605        0.00247
F         -5.94793       -0.05467        0.00217
C         -1.33672        1.43645        0.00461
C         -0.15429        0.63343        0.00322
C          1.11302        1.21567        0.00418
C          2.28261        0.44785        0.00284
C          3.56669        1.05360        0.00384
C          4.69108        0.26905        0.00248
C          6.07967        0.68253        0.00315
C          6.47653        2.05152        0.00547
N          6.74852        3.17829        0.00744
C          6.94678       -0.37084        0.00146
C          8.36553       -0.28635        0.00165
N          9.52365       -0.23351        0.00175
C          4.57696       -1.16048        0.00005
S          6.15721       -1.93294       -0.00135
C          3.36145       -1.78164       -0.00098
C          2.17754       -0.98970        0.00040
H          0.82691       -2.65963       -0.00241
H         -1.64879       -2.50666       -0.00208
H         -4.32266        2.27835        0.00610
H         -1.24475        2.51828        0.00645
H          1.19629        2.29983        0.00602
H          3.65231        2.13701        0.00568
H          3.27681       -2.86423       -0.00284
