41
syn_O_O_2-CN_m-OMebenz.log	Energy: -754507.1420987
C         -3.38280        1.24110        0.07898
C         -2.08580        0.73585        0.02403
C         -0.94784        1.58348        0.21882
C          0.27908        1.01402        0.14969
O          1.46993        1.67523        0.31101
C          0.49941       -0.38079       -0.10607
C          1.94421       -0.53598       -0.09068
C          2.83695       -1.59526       -0.26268
C          4.19575       -1.35109       -0.17479
C          2.45649        0.73602        0.16468
C          3.80919        1.02155        0.26021
C          4.68202       -0.05506        0.08441
O          6.02963        0.05043        0.14586
C          6.58779        1.32034        0.40382
C         -0.56664       -1.20859       -0.29497
C         -1.89231       -0.67263       -0.23506
C         -3.00977       -1.48234       -0.42198
C         -4.31594       -0.97846       -0.36756
C         -5.44144       -1.82632       -0.56203
C         -6.70039       -1.28687       -0.49966
C         -8.04265       -1.79968       -0.63801
C         -8.85987       -0.73662       -0.46326
C        -10.28093       -0.66668       -0.49410
N        -11.43914       -0.63888       -0.52455
C         -6.86048        0.10795       -0.24203
O         -8.18893        0.43287       -0.22210
C         -5.82656        0.96873       -0.04791
C         -4.50803        0.42967       -0.10852
H         -3.52745        2.30105        0.27395
H         -1.07448        2.64280        0.41423
H          2.47551       -2.59916       -0.46297
H          4.91989       -2.14777       -0.30255
H          4.14351        2.03102        0.46059
H          7.66858        1.17701        0.41137
H          6.26637        1.70876        1.37849
H          6.32284        2.04122       -0.37996
H         -0.43186       -2.26878       -0.49039
H         -2.86523       -2.54270       -0.61705
H         -5.28878       -2.88394       -0.75636
H         -8.35389       -2.81413       -0.83873
H         -5.98905        2.02337        0.14549
