48
syn_S_NPh_p-CNbenz_2-F.log	Energy: -1080077.1009787
C         -3.56991        1.14753        0.08231
C         -4.61309        0.21583        0.03574
C         -5.97542        0.62948        0.05332
C         -6.94415       -0.33072        0.00021
N         -8.33258       -0.19839        0.01959
C         -9.07457        1.01096        0.01961
C         -8.80418        1.98442       -0.94180
C         -9.51722        3.17810       -0.93080
C        -10.51199        3.39233        0.01952
C        -10.78689        2.41041        0.96747
C        -10.06352        1.22304        0.97875
C         -6.64735       -1.74151       -0.05417
C         -7.91015       -2.44234       -0.06821
C         -8.85482       -1.47821       -0.02284
F        -10.16833       -1.60513       -0.02513
C         -5.34101       -2.15320       -0.06981
C         -4.29307       -1.19055       -0.03022
C         -2.94791       -1.57503       -0.04787
C         -1.91127       -0.64352       -0.00240
C         -0.54282       -1.04375       -0.02036
C          0.45514       -0.11209        0.02593
C          1.90072       -0.31550        0.01780
C          2.60349       -1.51468       -0.03927
C          3.99911       -1.49344       -0.03673
C          4.72841       -2.72905       -0.09581
N          5.31679       -3.72686       -0.14380
C          2.61154        0.89642        0.07716
C          4.00441        0.92305        0.07992
C          4.69652       -0.27636        0.02271
C          0.12084        1.28462        0.09319
S          1.56242        2.30599        0.14432
C         -1.17045        1.71516        0.11276
C         -2.23151        0.75910        0.06527
H         -3.81235        2.20672        0.13370
H         -6.21969        1.68533        0.11395
H         -8.04421        1.79741       -1.69382
H         -9.30296        3.93664       -1.67725
H        -11.07246        4.32189        0.02066
H        -11.56038        2.57236        1.71167
H        -10.25851        0.46257        1.72721
H         -8.08218       -3.50632       -0.10873
H         -5.09007       -3.20961       -0.10678
H         -2.70454       -2.63418       -0.09770
H         -0.31061       -2.10466       -0.07136
H          2.07929       -2.46374       -0.08562
H          4.54329        1.86353        0.12592
H          5.78105       -0.28182        0.02358
H         -1.41453        2.77239        0.16400
