44
syn_C_NPh_diCl_3-F.log	Energy: -1301313.1273137
C         -2.39772        1.32919        0.53335
C         -3.61012        0.64175        0.57707
C         -4.84313        1.33091        0.77141
C         -6.00195        0.60595        0.79805
N         -7.31954        1.00787        0.98454
C         -7.78461        2.32711        1.18358
C         -7.36009        3.35666        0.34160
C         -7.82604        4.65075        0.54519
C         -8.73221        4.92158        1.56705
C         -9.16598        3.88898        2.39385
C         -8.68732        2.59600        2.21343
C         -5.99836       -0.83092        0.66741
C         -7.37331       -1.22592        0.80079
F         -7.80454       -2.48605        0.72569
C         -8.13383       -0.12670        0.99293
C         -4.83138       -1.51734        0.47898
C         -3.60246       -0.79995        0.42071
C         -2.38785       -1.45640        0.22667
C         -1.17138       -0.76397        0.18051
C          0.05792       -1.43238       -0.01648
C          1.25717       -0.74757       -0.06043
C          2.53374       -1.39976       -0.26035
Cl         2.56799       -3.12685       -0.45589
C          3.68719       -0.67519       -0.29486
Cl         5.23992       -1.41874       -0.53208
C          1.25164        0.69077        0.09985
C          2.49781        1.40070        0.05443
C          3.66886        0.74889       -0.13476
C          0.05440        1.35308        0.29276
C         -1.17849        0.66766        0.33966
H         -2.39756        2.41037        0.65232
H         -4.83832        2.40780        0.90341
H         -6.68454        3.13475       -0.47810
H         -7.49141        5.44778       -0.11174
H         -9.09988        5.93171        1.71695
H         -9.86947        4.09127        3.19565
H         -8.99718        1.79478        2.87757
H         -9.20380       -0.03627        1.10437
H         -4.82963       -2.59886        0.38299
H         -2.38441       -2.53759        0.10907
H          0.04573       -2.51049       -0.13467
H          2.48601        2.47991        0.17561
H          4.61257        1.28110       -0.16969
H          0.06022        2.43408        0.41228
