47
syn_O_NPh_diCl_benz.log	Energy: -1334065.7314003
C         -3.49759        1.32076       -0.24551
C         -2.19255        0.83038       -0.16754
C         -1.07117        1.70872       -0.08091
C          0.17889        1.16612       -0.00277
N          1.41785        1.79820        0.07537
C          1.62351        3.19847        0.10930
C          1.01600        3.96786        1.10218
C          1.21161        5.34450        1.12582
C          2.02797        5.95408        0.17653
C          2.64114        5.18211       -0.80674
C          2.43239        3.80776       -0.85042
C          0.39974       -0.25792       -0.02266
C          1.83935       -0.45228        0.04866
C          2.64657       -1.58532        0.07749
C          4.02521       -1.42863        0.16778
C          2.42197        0.82780        0.10599
C          3.79974        0.99616        0.20819
C          4.58827       -0.14984        0.23556
C         -0.65788       -1.11472       -0.10505
C         -1.98680       -0.59810       -0.17609
C         -3.09293       -1.44351       -0.25885
C         -4.40079       -0.95436       -0.33555
C         -5.51687       -1.83752       -0.41940
C         -6.77313       -1.30559       -0.49271
C         -8.11447       -1.83804       -0.58620
Cl        -8.54953       -3.49600       -0.63717
C         -8.94343       -0.77336       -0.62476
Cl       -10.63798       -0.69453       -0.73250
C         -6.95241        0.10890       -0.48485
O         -8.29029        0.41788       -0.56642
C         -5.93373        1.00128       -0.40737
C         -4.60734        0.47569       -0.32919
H         -3.65625        2.39674       -0.24112
H         -1.22860        2.78261       -0.08374
H          0.39954        3.47993        1.85073
H          0.73465        5.94041        1.89796
H          2.18555        7.02780        0.20282
H          3.27423        5.65215       -1.55308
H          2.88625        3.20044       -1.62743
H          2.20413       -2.57642        0.03334
H          4.66896       -2.30200        0.19000
H          4.24347        1.98406        0.27082
H          5.66628       -0.04495        0.31425
H         -0.50703       -2.19099       -0.12300
H         -2.93394       -2.51967       -0.26484
H         -5.35926       -2.91195       -0.42418
H         -6.11036        2.07136       -0.40442
