64
syn_NPh_NPh_diCF3_benz.log	Energy: -1312651.0909648
C         -3.81483        0.82820        0.22957
C         -2.47416        0.58709       -0.06041
C         -1.43465        1.41254        0.46989
C         -0.14126        1.12035        0.15152
N          1.03421        1.77043        0.52385
C          1.11168        2.90373        1.36780
C          0.55988        2.85737        2.64863
C          0.62836        3.97618        3.47164
C          1.26398        5.13424        3.03109
C          1.82275        5.17403        1.75641
C          1.73859        4.06668        0.91905
C          0.20831        0.01996       -0.71369
C          1.65740        0.04047       -0.84135
C          2.56365       -0.76507       -1.52331
C          3.92224       -0.48361       -1.42631
C          2.12044        1.12416       -0.07165
C          3.47801        1.40799        0.04197
C          4.36747        0.58976       -0.64816
C         -0.76492       -0.78026       -1.23139
C         -2.13658       -0.52628       -0.91934
C         -3.15625       -1.32452       -1.42751
C         -4.50742       -1.08589       -1.13630
C         -5.52784       -1.91823       -1.66261
C         -6.84347       -1.65434       -1.36017
C         -8.10814       -2.27218       -1.69902
C         -8.29278       -3.47804       -2.56335
F         -7.11201       -4.07629       -2.80904
F         -9.08138       -4.40112       -1.98782
F         -8.83286       -3.18125       -3.75676
C         -9.08793       -1.53207       -1.09859
C        -10.57954       -1.72306       -1.12755
F        -10.95543       -2.51830       -2.12836
F        -11.02329       -2.26947        0.01831
F        -11.21243       -0.55070       -1.28332
C         -7.15792       -0.53819       -0.51923
N         -8.53924       -0.49206       -0.37427
C         -9.21373        0.47464        0.43062
C         -9.22948        1.80508        0.01919
C         -9.85130        2.75991        0.81556
C        -10.46023        2.38351        2.01047
C        -10.43917        1.05159        2.41443
C         -9.80611        0.09254        1.63044
C         -6.20773        0.28663        0.02080
C         -4.84595        0.02735       -0.28163
H         -4.07273        1.66577        0.87394
H         -1.68973        2.25321        1.10734
H          0.08641        1.94249        2.99093
H          0.19512        3.93693        4.46643
H          1.32339        6.00312        3.67914
H          2.31480        6.07570        1.40469
H          2.14938        4.09633       -0.08541
H          2.21352       -1.60312       -2.11920
H          4.64201       -1.10172       -1.95323
H          3.83179        2.23278        0.65138
H          5.43214        0.79130       -0.57584
H         -0.51771       -1.61183       -1.88629
H         -2.89979       -2.16235       -2.07238
H         -5.25426       -2.75239       -2.29729
H         -8.75994        2.07718       -0.92077
H         -9.86762        3.79760        0.49754
H        -10.95106        3.12976        2.62749
H        -10.90963        0.75667        3.34701
H         -9.77258       -0.94686        1.93749
H         -6.47708        1.11878        0.66352
