50
syn_S_O_p-OMebenz_p-OMebenz.log	Energy: -1067552.4684279
C         -3.01740       -1.34009        2.18286
C         -4.00349       -0.63077        1.49392
C         -5.36561       -0.63506        1.93013
C         -6.26321        0.07977        1.20624
O         -7.60008        0.18484        1.48112
C         -5.91553        0.83121        0.03701
C         -7.16518        1.42878       -0.41002
C         -7.52764        2.25659       -1.46168
C         -8.86634        2.64074       -1.57895
O         -9.14833        3.45304       -2.63371
C        -10.47948        3.87800       -2.80860
C         -8.13153        0.99590        0.50605
C         -9.45680        1.36306        0.40816
C         -9.81957        2.19685       -0.65190
C         -4.62377        0.85144       -0.39976
C         -3.62948        0.11929        0.31851
C         -2.29491        0.11278       -0.09288
C         -1.31120       -0.59709        0.59824
C          0.04957       -0.59965        0.17432
C          0.99414       -1.30202        0.86796
C          2.42411       -1.42742        0.59667
C          3.15448       -0.85557       -0.43775
C          4.52565       -1.09310       -0.53170
O          5.15393       -0.49156       -1.57562
C          6.54068       -0.69363       -1.72222
C          3.07287       -2.24129        1.54081
C          4.43566       -2.48008        1.45107
C          5.16506       -1.90519        0.41274
C          0.60886       -2.04576        2.03720
S          1.97904       -2.87531        2.77673
C         -0.68033       -2.07177        2.47879
C         -1.68335       -1.34479        1.76938
H         -3.29724       -1.90583        3.06856
H         -5.66170       -1.19382        2.81142
H         -6.80862        2.61315       -2.19146
H        -10.47886        4.51022       -3.69735
H        -10.83344        4.46392       -1.95005
H        -11.15737        3.02954       -2.97066
H        -10.19130        1.01793        1.12694
H        -10.85726        2.49466       -0.74321
H         -4.33548        1.41390       -1.28361
H         -2.01378        0.67839       -0.97867
H          0.32220       -0.03171       -0.71171
H          2.68437       -0.22224       -1.18318
H          6.83452       -0.12899       -2.60780
H          6.78058       -1.75403       -1.87465
H          7.09769       -0.31817       -0.85389
H          4.94066       -3.10809        2.17828
H          6.22954       -2.09841        0.35218
H         -0.96369       -2.63571        3.36289
