51
syn_O_NPh_p-OMebenz_diF.log	Energy: -953626.3874286
C         -4.27010       -0.95471       -0.85485
C         -5.16854       -1.15336        0.20115
C         -6.57389       -1.18532       -0.02238
C         -7.40065       -1.38962        1.04643
N         -8.79318       -1.44574        1.10448
C         -9.69648       -1.41433        0.01253
C         -9.48671       -2.25409       -1.08149
C        -10.36209       -2.20939       -2.16072
C        -11.45785       -1.35068       -2.14097
C        -11.67116       -0.52716       -1.03886
C        -10.78766       -0.54649        0.03451
C         -6.89293       -1.55149        2.38446
C         -8.04572       -1.70673        3.22607
F         -8.02864       -1.88572        4.54822
C         -9.13892       -1.63989        2.43521
F        -10.41314       -1.74376        2.75970
C         -5.54501       -1.52028        2.62296
C         -4.64891       -1.32680        1.53623
C         -3.26251       -1.29374        1.72844
C         -2.37070       -1.09799        0.67573
C         -0.95764       -1.06858        0.89413
C         -0.12083       -0.87385       -0.16359
C          1.32215       -0.78543       -0.33456
C          2.41046       -0.86606        0.52055
C          3.69396       -0.73014       -0.01617
O          4.71285       -0.82031        0.88172
C          6.03162       -0.69198        0.40522
C          1.52126       -0.57198       -1.70406
C          2.77844       -0.43523       -2.25308
C          3.87351       -0.51688       -1.38968
C         -0.65999       -0.70041       -1.48113
O          0.33778       -0.51911       -2.40211
C         -1.98771       -0.71797       -1.75364
C         -2.89099       -0.92139       -0.66088
H         -4.66356       -0.82215       -1.86024
H         -6.96442       -1.04267       -1.02488
H         -8.64603       -2.94041       -1.07648
H        -10.19388       -2.86022       -3.01315
H        -12.14424       -1.32420       -2.98142
H        -12.52299        0.14539       -1.01754
H        -10.93675        0.10838        0.88616
H         -5.15550       -1.63681        3.62973
H         -2.86947       -1.42507        2.73434
H         -0.57277       -1.20220        1.90151
H          2.29706       -1.03047        1.58678
H          6.67796       -0.79377        1.27787
H          6.20162        0.28977       -0.05631
H          6.27860       -1.47898       -0.31963
H          2.91378       -0.27031       -3.31598
H          4.86862       -0.41154       -1.80517
H         -2.36331       -0.58341       -2.76235
