50
syn_S_NPh_diCl_p-CF3benz.log	Energy: -1748184.5810308
C         -3.47757        1.36497       -0.21330
C         -2.17382        0.86802       -0.15925
C         -1.04856        1.74104       -0.06741
C          0.19893        1.19141       -0.01497
N          1.44247        1.81899        0.06295
C          1.65252        3.21972        0.12623
C          1.08255        3.96095        1.16113
C          1.28263        5.33614        1.21463
C          2.06521        5.96917        0.25223
C          2.64019        5.22393       -0.77376
C          2.42687        3.85138       -0.84657
C          0.41460       -0.23148       -0.06436
C          1.85438       -0.42883       -0.01238
C          2.65627       -1.56199       -0.01259
C          4.03617       -1.40507        0.06969
C          4.93633       -2.60493        0.01090
F          4.30081       -3.73169        0.37683
F          5.41412       -2.81225       -1.23160
F          6.00617       -2.46700        0.81519
C          2.43967        0.85032        0.06467
C          3.82004        1.01418        0.15753
C          4.60649       -0.12872        0.15620
C         -0.64582       -1.08431       -0.15227
C         -1.97304       -0.56136       -0.19896
C         -3.08237       -1.40270       -0.28747
C         -4.38704       -0.90379       -0.34069
C         -5.51250       -1.76888       -0.43189
C         -6.77651       -1.24677       -0.48328
C         -8.04808       -1.93680       -0.57739
Cl        -8.15995       -3.65584       -0.64343
C         -9.10646       -1.10008       -0.60700
Cl       -10.76003       -1.53549       -0.71401
C         -6.96720        0.17608       -0.44483
S         -8.67417        0.60185       -0.52419
C         -5.91545        1.03989       -0.35773
C         -4.58817        0.52194       -0.30288
H         -3.63308        2.44105       -0.18541
H         -1.20084        2.81544       -0.04594
H          0.49205        3.45345        1.91756
H          0.83592        5.91212        2.01914
H          2.22633        7.04149        0.30163
H          3.24653        5.71330       -1.52964
H          2.85028        3.26425       -1.65571
H          2.21796       -2.55271       -0.06795
H          4.26699        1.99892        0.23754
H          5.68443       -0.03280        0.23279
H         -0.49882       -2.16037       -0.19253
H         -2.92800       -2.47897       -0.31715
H         -5.36052       -2.84404       -0.46068
H         -6.06714        2.11505       -0.32963
