43
syn_C_O_p-OMebenz_2-F.log	Energy: -760283.7173504
C          1.09912       -1.04023        1.51799
C          0.21950       -0.53168        0.56383
C         -1.17427       -0.37341        0.84897
C         -1.95478        0.12753       -0.13675
O         -3.31215        0.35110       -0.05307
C         -1.48314        0.50697       -1.43530
C         -2.65615        0.98147       -2.14421
C         -3.65779        0.84994       -1.25926
F         -4.93215        1.12678       -1.36721
C         -0.15673        0.36478       -1.72968
C          0.72975       -0.15853       -0.73777
C          2.09130       -0.32051       -0.99746
C          2.97241       -0.83140       -0.03890
C          4.35684       -0.99691       -0.30338
C          5.23072       -1.49897        0.63283
C          6.66851       -1.67610        0.36953
C          7.25255       -1.34605       -0.85644
C          8.61236       -1.52205       -1.08384
O          9.05284       -1.16217       -2.31692
C         10.42293       -1.32275       -2.60584
C          7.49457       -2.20055        1.39301
C          8.86196       -2.37036        1.14483
C          9.43146       -2.04082       -0.07232
C          4.71245       -1.86867        1.93159
C          5.61465       -2.39849        2.93138
C          6.92644       -2.55426        2.67560
C          3.37233       -1.71545        2.20724
C          2.46337       -1.20040        1.25140
H          0.71525       -1.32061        2.49635
H         -1.57806       -0.64682        1.81777
H         -2.73112        1.35823       -3.15171
H          0.23897        0.64104       -2.70261
H          2.47835       -0.04113       -1.97506
H          4.70828       -0.70820       -1.28893
H          6.66976       -0.94135       -1.67557
H         11.05013       -0.71570       -1.94020
H         10.55525       -0.98078       -3.63298
H         10.73060       -2.37395       -2.53334
H          9.49182       -2.77332        1.93390
H         10.49425       -2.18730       -0.22501
H          5.20098       -2.66841        3.89925
H          7.59334       -2.95353        3.43555
H          2.99511       -1.99749        3.18791
