37
syn_C_O_3-OMe_C.log	Energy: -601645.9839454
C          1.25404       -1.58441       -0.41266
C          0.14397       -0.77973       -0.17463
C         -1.18704       -1.28201       -0.33446
C         -2.21128       -0.43027       -0.08166
O         -3.54440       -0.72297       -0.17768
C         -2.04232        0.93077        0.33230
C         -3.39068        1.44253        0.48031
C         -4.20891        0.42210        0.16629
C         -0.78305        1.43543        0.49249
C          0.34596        0.59419        0.24350
C          1.64693        1.06761        0.39455
C          2.76589        0.25742        0.15498
C          4.08473        0.73994        0.30906
C          5.17786       -0.06872        0.06966
C          6.53395        0.41732        0.22518
O          6.61574        1.71047        0.61917
C          7.89916        2.26447        0.79672
C          7.59995       -0.39831       -0.01691
C          4.98425       -1.43740       -0.34728
C          6.13789       -2.25924       -0.59067
C          7.38563       -1.75285       -0.42992
C          3.69564       -1.91658       -0.49997
C          2.56465       -1.10666       -0.26031
H          1.10300       -2.61496       -0.72630
H         -1.35817       -2.30677       -0.64634
H         -3.68828        2.43638        0.78024
H         -5.28570        0.34447        0.13690
H         -0.61994        2.46293        0.80524
H          1.80187        2.09773        0.70809
H          4.23882        1.76732        0.62200
H          8.47185        2.25098       -0.13931
H          8.46073        1.72789        1.57200
H          7.74207        3.29676        1.11118
H          8.61754       -0.04399        0.09645
H          5.98759       -3.28821       -0.90421
H          8.25520       -2.37663       -0.61485
H          3.54557       -2.94724       -0.81384
