44
syn_S_S_3-OMe_m-OMebenz.log	Energy: -1173841.0882562
C         -3.38753        1.03398        1.23402
C         -2.07125        0.77066        0.85749
C         -0.96169        1.28766        1.59497
C          0.30579        1.00362        1.18760
S          1.79583        1.54778        1.96296
C          0.57113        0.19235        0.02791
C          2.00305        0.03651       -0.19796
C          2.66233       -0.66992       -1.20995
C          4.04208       -0.69772       -1.25380
C          2.77372        0.70673        0.75824
C          4.16728        0.69326        0.73500
C          4.79872       -0.01785       -0.28397
O          6.14250       -0.11401       -0.42606
C          6.96032        0.54663        0.51404
C         -0.47539       -0.31201       -0.69082
C         -1.82239       -0.04304       -0.30472
C         -2.90612       -0.54688       -1.02298
C         -4.22809       -0.28465       -0.64796
C         -5.32969       -0.80116       -1.38484
C         -6.60859       -0.52158       -0.98656
C         -7.85625       -0.94835       -1.59595
O         -7.78504       -1.72195       -2.69870
C         -9.01957       -2.11488       -3.25818
C         -8.95337       -0.49458       -0.94998
C         -6.84909        0.28957        0.17011
S         -8.57246        0.49213        0.45670
C         -5.81929        0.80392        0.90483
C         -4.47646        0.52990        0.51450
H         -3.57401        1.64879        2.11177
H         -1.15096        1.90102        2.47135
H          2.09002       -1.19971       -1.96602
H          4.57144       -1.23924       -2.02996
H          4.73052        1.22440        1.49285
H          7.98842        0.34143        0.21427
H          6.79579        0.16326        1.52918
H          6.78945        1.63071        0.50334
H         -0.29847       -0.92700       -1.56969
H         -2.72004       -1.16173       -1.90085
H         -5.15254       -1.41621       -2.26218
H         -8.78339       -2.72669       -4.12903
H         -9.60501       -1.24021       -3.57021
H         -9.60511       -2.70491       -2.54113
H         -9.99028       -0.66866       -1.19907
H         -6.00144        1.41870        1.78172
