45
syn_S_S_tetFbenz_p-CF3benz.log	Energy: -1586986.0571467
C         -2.91732       -1.94761        1.53906
C         -4.01821       -1.23096        1.06465
C         -5.35285       -1.58011        1.43062
C         -6.39450       -0.85045        0.94137
S         -8.10534       -1.12477        1.27555
C         -6.19111        0.26845        0.06196
C         -7.45756        0.88345       -0.32199
C         -7.66782        1.98063       -1.15610
C         -8.96290        2.41236       -1.40115
C         -9.21906        3.61429       -2.26769
F         -8.12394        3.99627       -2.94429
F        -10.18714        3.37345       -3.16929
F         -9.62450        4.66931       -1.53802
C         -8.56074        0.23692        0.25580
C         -9.86284        0.66847        0.01216
C        -10.05623        1.75988       -0.81988
C         -4.92146        0.61999       -0.30092
C         -3.80007       -0.11295        0.18478
C         -2.49338        0.22647       -0.17187
C         -1.39300       -0.49018        0.30246
C         -0.06240       -0.13737       -0.06647
C          0.99963       -0.85499        0.41103
C          2.42522       -0.66968        0.16463
C          3.06788        0.28409       -0.61807
F          2.37033        1.21039       -1.28233
C          4.45104        0.29460       -0.72641
F          5.05955        1.20929       -1.47638
C          3.20705       -1.62024        0.84184
C          4.58807       -1.61480        0.73743
F          5.32489       -2.51977        1.38267
C          5.21250       -0.65563       -0.04835
F          6.53625       -0.63702       -0.15897
C          0.76849       -1.97079        1.28974
S          2.26726       -2.76080        1.79093
C         -0.48670       -2.34101        1.66690
C         -1.61132       -1.60767        1.18183
H         -3.08198       -2.79230        2.20387
H         -5.51504       -2.42406        2.09472
H         -6.82835        2.49226       -1.61404
H        -10.71140        0.16243        0.46038
H        -11.06248        2.10942       -1.02623
H         -4.74699        1.46279       -0.96483
H         -2.32776        1.07114       -0.83665
H          0.09398        0.70593       -0.72950
H         -0.65192       -3.18459        2.33070
