39
syn_C_S_diCF3_2-F.log	Energy: -1217601.3424015
C          0.84375       -1.09088        1.50365
C         -0.23387       -0.61981        0.76524
C         -1.57367       -0.70370        1.26138
C         -2.59699       -0.22912        0.50289
S         -4.30817       -0.23914        0.93140
C         -2.38219        0.36346       -0.79966
C         -3.62525        0.79138       -1.40697
C         -4.67123        0.53166       -0.60918
F         -5.94200        0.79584       -0.86411
C         -1.11118        0.45343       -1.29240
C         -0.00043       -0.03028       -0.53528
C          1.30026        0.05149       -1.01736
C          2.39502       -0.42337       -0.27489
C          3.71090       -0.33619       -0.77173
C          4.80478       -0.80037       -0.05117
C          6.17831       -0.72667       -0.53190
C          6.36108       -0.10194       -1.90604
F          5.66549       -0.79185       -2.83161
F          5.89076        1.16103       -1.91471
F          7.61547       -0.04149       -2.34423
C          7.20500       -1.20475        0.24388
C          8.67976       -1.17880       -0.14753
F          9.13294        0.06733       -0.33469
F          9.44406       -1.71266        0.82418
F          8.92517       -1.89689       -1.25087
C          4.55678       -1.38574        1.24546
C          5.66604       -1.86795        2.00411
C          6.92930       -1.78153        1.52774
C          3.26775       -1.47699        1.74372
C          2.15936       -1.00865        1.01713
H          0.66904       -1.53405        2.48127
H         -1.74755       -1.14643        2.23776
H         -3.71057        1.26088       -2.37811
H         -0.92954        0.89509       -2.26837
H          1.47889        0.49402       -1.99449
H          3.83507        0.11224       -1.74761
H          5.47856       -2.30876        2.97906
H          7.75645       -2.15138        2.11719
H          3.11011       -1.92243        2.72309
