50
syn_S_NPh_m-CF3benz_3-F.log	Energy: -1233653.5955806
C         -3.57919        1.17035        0.06803
C         -4.61853        0.23116        0.01015
C         -5.98009        0.63881        0.02240
C         -6.95329       -0.32359       -0.04336
N         -8.33817       -0.21399       -0.03144
C         -9.09519        0.97717        0.04135
C         -8.80414        2.04810       -0.80556
C         -9.55709        3.21436       -0.72649
C        -10.61469        3.31139        0.17393
C        -10.91218        2.23489        1.00500
C        -10.14991        1.07324        0.95009
C         -6.62617       -1.72430       -0.09197
C         -7.88867       -2.40810       -0.09542
F         -8.02694       -3.73418       -0.14894
C         -8.88618       -1.49769       -0.05312
C         -5.32113       -2.14071       -0.10611
C         -4.28339       -1.17254       -0.06232
C         -2.93361       -1.54703       -0.07679
C         -1.90643       -0.60849       -0.02107
C         -0.53374       -0.99704       -0.03571
C          0.45610       -0.05817        0.02119
C          1.90248       -0.25181        0.01733
C          2.62011       -1.44771       -0.04206
C          4.00538       -1.42274       -0.03177
C          2.60172        0.96320        0.08750
C          3.99136        1.00067        0.09795
C          4.68458       -0.20224        0.03810
C          6.18853       -0.20267       -0.00661
F          6.70468       -1.19765        0.73560
F          6.64293       -0.37807       -1.26073
F          6.70977        0.94955        0.44491
C          0.10968        1.33716        0.09675
S          1.54081        2.36951        0.16150
C         -1.18511        1.75623        0.11323
C         -2.23957        0.79207        0.05457
H         -3.82928        2.22741        0.12482
H         -6.22303        1.69389        0.09335
H         -8.00422        1.95441       -1.53280
H         -9.32528        4.04481       -1.38634
H        -11.20506        4.22064        0.22628
H        -11.73251        2.30289        1.71293
H        -10.35736        0.24416        1.61987
H         -9.95605       -1.64051       -0.07027
H         -5.07423       -3.19759       -0.14096
H         -2.68286       -2.60416       -0.13183
H         -0.29229       -2.05552       -0.09300
H          2.09573       -2.39706       -0.09312
H          4.56736       -2.34947       -0.07191
H          4.52659        1.94166        0.15595
H         -1.43820        2.81101        0.17050
