45
syn_O_NPh_2-CF3_2-CN.log	Energy: -930199.0156988
C          0.41522       -0.82681        0.09181
C          1.66038       -0.18757        0.13801
C          2.87232       -0.92628        0.07191
C          4.05558       -0.23831        0.11772
N          5.35989       -0.70978        0.08525
C          5.75441       -2.06722       -0.05557
C          5.28901       -2.80793       -1.14177
C          5.66445       -4.13972       -1.27557
C          6.51822       -4.72432       -0.34346
C          6.98918       -3.97568        0.73124
C          6.59977       -2.64963        0.88668
C          4.11158        1.19385        0.24822
C          5.50294        1.55135        0.29272
C          6.21020        0.39079        0.19387
C          7.62666        0.24351        0.17211
N          8.78187        0.14519        0.16370
C          2.94915        1.92168        0.31354
C          1.69836        1.25293        0.25599
C          0.49104        1.95905        0.31691
C         -0.74775        1.32087        0.26916
C         -1.96534        2.06350        0.33302
C         -3.15643        1.39474        0.28342
C         -4.55378        1.77411        0.31899
C         -5.24115        0.62238        0.22896
C         -6.71347        0.37096        0.21449
F         -7.37446        1.53184        0.30950
F         -7.09635       -0.23761       -0.91559
F         -7.08810       -0.40925        1.23677
C         -3.16327       -0.03127        0.16894
O         -4.45397       -0.48824        0.13681
C         -2.04537       -0.79662        0.10368
C         -0.78563       -0.12197        0.15334
H          0.38516       -1.91044        0.00496
H          2.84380       -2.00823       -0.00743
H          4.64543       -2.33404       -1.87627
H          5.30073       -4.71681       -2.12000
H          6.81787       -5.76146       -0.45623
H          7.65521       -4.42594        1.46031
H          6.94744       -2.06673        1.73343
H          5.92685        2.54078        0.38002
H          2.97285        3.00328        0.41393
H          0.52172        3.04286        0.40522
H         -1.92650        3.14548        0.41993
H         -4.97239        2.76570        0.40029
H         -2.09470       -1.87658        0.01751
