48
syn_S_NPh_m-CNbenz_3-Cl.log	Energy: -1306214.2433597
C         -3.56246        1.15959        0.04629
C         -4.60577        0.22425        0.01030
C         -5.96590        0.63696        0.02064
C         -6.93978       -0.32448       -0.02138
N         -8.32535       -0.20633       -0.00479
C         -9.07416        0.99420        0.04443
C         -8.80097        2.02741       -0.85279
C         -9.54443        3.20112       -0.79723
C        -10.57286        3.34029        0.13121
C        -10.85110        2.30054        1.01403
C        -10.09783        1.13198        0.98168
C         -6.62489       -1.72828       -0.04783
C         -7.89271       -2.41175       -0.03773
Cl        -8.10673       -4.12383       -0.07542
C         -8.87578       -1.47994       -0.00678
C         -5.32135       -2.14730       -0.06010
C         -4.27904       -1.18230       -0.03686
C         -2.93166       -1.56393       -0.04853
C         -1.89949       -0.62923       -0.01373
C         -0.52954       -1.02542       -0.02431
C          0.46550       -0.09032        0.01210
C          1.90981       -0.29279        0.00956
C          2.61788       -1.49524       -0.03035
C          4.00287       -1.48396       -0.02526
C          2.61639        0.92176        0.05481
C          4.00404        0.95184        0.06042
C          4.69341       -0.26284        0.01994
C          6.12981       -0.25956        0.02481
N          7.28905       -0.25950        0.02860
C          0.12701        1.30778        0.06098
S          1.56353        2.33424        0.10179
C         -1.16542        1.73404        0.07277
C         -2.22472        0.77431        0.03582
H         -3.80735        2.21868        0.08374
H         -6.20730        1.69372        0.07079
H         -8.02220        1.89921       -1.59763
H         -9.32842        4.00369       -1.49568
H        -11.15584        4.25515        0.16556
H        -11.64834        2.40302        1.74369
H        -10.28819        0.33099        1.68969
H         -9.94830       -1.61052       -0.01368
H         -5.07835       -3.20587       -0.07845
H         -2.68640       -2.62310       -0.08414
H         -0.29401       -2.08610       -0.06138
H          2.08592       -2.44091       -0.06528
H          4.56198       -2.41249       -0.05590
H          4.55063        1.88798        0.09527
H         -1.41278        2.79103        0.11018
