62
syn_C_NPh_p-CF3benz_m-CF3benz.log	Energy: -1277943.9778326
C         -3.34917        1.45083        0.13559
C         -2.04167        0.97879        0.24753
C         -0.92267        1.79353       -0.10423
C          0.33116        1.27397        0.03164
N          1.56777        1.85179       -0.25228
C          1.76934        3.16899       -0.73452
C          1.27751        4.25606       -0.01185
C          1.47041        5.54686       -0.49185
C          2.17020        5.75750       -1.67727
C          2.66828        4.67036       -2.39036
C          2.45978        3.37496       -1.92881
C          0.55815       -0.06918        0.50223
C          1.99792       -0.27089        0.48974
C          2.81331       -1.34330        0.83513
C          4.19057       -1.21148        0.71617
C          2.57251        0.92682        0.02244
C          3.94938        1.07750       -0.09154
C          4.74346       -0.00994        0.25933
C          6.24121        0.12869        0.20674
F          6.83653       -1.02112       -0.15395
F          6.63105        1.07348       -0.66636
F          6.74743        0.46993        1.40583
C         -0.49433       -0.86588        0.84345
C         -1.82725       -0.36722        0.73088
C         -2.92671       -1.15319        1.07298
C         -4.23721       -0.67621        0.96059
C         -5.35777       -1.47293        1.30722
C         -6.64998       -1.01143        1.19829
C         -7.82339       -1.82218        1.55192
C         -7.71254       -3.13790        2.03144
C         -8.83311       -3.87676        2.35562
C         -8.70886       -5.28400        2.86915
F         -7.43221       -5.69183        2.95406
F         -9.25086       -5.40825        4.09454
F         -9.35517       -6.15522        2.07290
C         -9.11557       -1.27058        1.40907
C        -10.24423       -2.04001        1.74494
C        -10.11466       -3.32849        2.21330
C         -6.86022        0.33351        0.71282
C         -8.21026        0.83663        0.59086
C         -9.27506        0.08138        0.91873
C         -5.78475        1.12299        0.37134
C         -4.45140        0.65963        0.47887
H         -3.51790        2.46163       -0.22890
H         -1.08635        2.80040       -0.47486
H          0.75343        4.08149        0.92266
H          1.08452        6.39128        0.07085
H          2.32739        6.76688       -2.04428
H          3.21083        4.82821       -3.31727
H          2.82320        2.51960       -2.49005
H          2.38064       -2.27263        1.19278
H          4.84222       -2.03891        0.97286
H          4.39214        2.00308       -0.44004
H         -0.33761       -1.88138        1.19766
H         -2.76061       -2.16512        1.43633
H         -5.15515       -2.47671        1.66722
H         -6.73991       -3.59700        2.15532
H        -11.23148       -1.60125        1.62925
H        -10.99046       -3.91551        2.47004
H         -8.34403        1.85065        0.22362
H        -10.28345        0.47409        0.82123
H         -5.95988        2.13301        0.00734
