49
syn_S_O_p-OMebenz_m-CF3benz.log	Energy: -1207152.9815614
C         -3.58245        1.06095       -0.00627
C         -4.58272        0.08659       -0.00591
C         -5.96830        0.44262       -0.00788
C         -6.87615       -0.56451       -0.00740
O         -8.24009       -0.40606       -0.00911
C         -6.52166       -1.95089       -0.00503
C         -7.79074       -2.66179       -0.00541
C         -8.17114       -3.99847       -0.00385
C         -9.52801       -4.30809       -0.00494
C         -8.77546       -1.66432       -0.00794
C        -10.12684       -1.94323       -0.00897
C        -10.48640       -3.29217       -0.00746
C        -11.95547       -3.62255       -0.01001
F        -12.18417       -4.94432       -0.00061
F        -12.57600       -3.09946        1.06256
F        -12.56839       -3.11627       -1.09496
C         -5.20748       -2.31707       -0.00312
C         -4.19998       -1.30542       -0.00352
C         -2.84260       -1.63496       -0.00168
C         -1.84515       -0.65868       -0.00207
C         -0.46148       -1.00095       -0.00022
C          0.49644       -0.02714       -0.00066
C          1.94984       -0.17355        0.00097
C          2.69319       -1.34729        0.00335
C          4.08651       -1.28466        0.00461
O          4.72653       -2.48272        0.00685
C          6.13588       -2.48362        0.00863
C          2.60693        1.06837       -0.00014
C          3.99185        1.13530        0.00113
C          4.73439       -0.04329        0.00350
C          0.10277        1.35657       -0.00301
S          1.49294        2.44139       -0.00318
C         -1.20832        1.72963       -0.00484
C         -2.22585        0.72864       -0.00443
H         -3.86886        2.11004       -0.00807
H         -6.27221        1.48373       -0.00970
H         -7.42755       -4.78895       -0.00180
H         -9.84747       -5.34314       -0.00374
H        -10.86868       -1.15295       -0.01081
H         -4.91163       -3.36253       -0.00132
H         -2.55471       -2.68402        0.00011
H         -0.18259       -2.05165        0.00155
H          2.21678       -2.32235        0.00426
H          6.43537       -3.53225        0.01048
H          6.53888       -1.99195        0.90356
H          6.54114       -1.99447       -0.88667
H          4.50398        2.09231        0.00028
H          5.81606        0.02038        0.00445
H         -1.49806        2.77646       -0.00662
