50
syn_S_NPh_diCl_m-CF3benz.log	Energy: -1748184.0428850
C         -3.48975        1.36852       -0.20182
C         -2.18406        0.87441       -0.16309
C         -1.06069        1.74900       -0.07038
C          0.18948        1.20266       -0.03293
N          1.43052        1.83158        0.04233
C          1.64094        3.23125        0.11843
C          1.06964        3.96371        1.15895
C          1.27118        5.33806        1.22571
C          2.05739        5.97910        0.27165
C          2.63425        5.24263       -0.75955
C          2.41888        3.87128       -0.84620
C          0.40707       -0.21968       -0.09990
C          1.84695       -0.41697       -0.06096
C          2.65574       -1.54857       -0.07910
C          4.03381       -1.39551       -0.00805
C          2.43013        0.86173        0.02469
C          3.80730        1.03043        0.10835
C          4.59419       -0.11652        0.08778
C          6.09305        0.01821        0.11029
F          6.67087       -0.96176        0.82572
F          6.61106       -0.04872       -1.13046
F          6.48931        1.18859        0.63784
C         -0.65244       -1.07412       -0.18882
C         -1.98081       -0.55417       -0.21961
C         -3.08902       -1.39731       -0.30830
C         -4.39502       -0.90109       -0.34583
C         -5.51933       -1.76782       -0.43690
C         -6.78480       -1.24816       -0.47258
C         -8.05560       -1.94002       -0.56337
Cl        -8.16424       -3.65863       -0.64597
C         -9.11602       -1.10549       -0.57581
Cl       -10.76942       -1.54358       -0.67381
C         -6.97827        0.17389       -0.41790
S         -8.68681        0.59651       -0.47892
C         -5.92787        1.03918       -0.33035
C         -4.59886        0.52386       -0.29151
H         -3.64757        2.44385       -0.16133
H         -1.21571        2.82266       -0.03627
H          0.47759        3.45001        1.90997
H          0.82346        5.90690        2.03475
H          2.22052        7.05054        0.33203
H          3.24449        5.73777       -1.50846
H          2.84439        3.29191       -1.65982
H          2.21688       -2.53964       -0.14192
H          4.68076       -2.26540       -0.01702
H          4.25423        2.01364        0.19600
H         -0.50324       -2.14935       -0.24193
H         -2.93238       -2.47287       -0.35051
H         -5.36526       -2.84229       -0.47802
H         -6.08177        2.11363       -0.28983
