60
syn_NPh_NPh_3-CN_m-CNbenz.log	Energy: -1005497.4700661
C         -3.72594        0.41197        0.42861
C         -2.37077        0.22102        0.16237
C         -1.40686        1.24096        0.42979
C         -0.09630        0.98850        0.14988
N          1.02004        1.81125        0.30447
C          1.00700        3.12604        0.83405
C          0.50600        3.35300        2.11587
C          0.48868        4.64504        2.62982
C          0.98846        5.70582        1.87858
C          1.49631        5.47346        0.60322
C          1.49628        4.18754        0.07307
C          0.34046       -0.26159       -0.41736
C          1.77853       -0.15253       -0.59623
C          2.74503       -1.02553       -1.08426
C          4.07228       -0.62016       -1.11366
C          2.14844        1.13046       -0.14192
C          3.47131        1.55131       -0.15156
C          4.42549        0.65676       -0.64717
C          5.80467        1.05893       -0.67800
N          6.91713        1.38427       -0.70464
C         -0.56138       -1.24992       -0.68155
C         -1.94418       -1.04115       -0.39694
C         -2.89455       -2.02795       -0.65270
C         -4.25512       -1.83780       -0.38589
C         -5.21265       -2.85173       -0.66294
C         -6.53215       -2.62095       -0.38415
C         -7.74169       -3.40353       -0.55574
C         -7.83042       -4.71762       -1.08071
N         -7.87610       -5.79309       -1.51515
C         -8.78055       -2.63910       -0.10575
C         -6.94328       -1.37129        0.18805
N         -8.33070       -1.42495        0.34857
C         -9.15911       -0.40060        0.87550
C         -8.84726        0.18471        2.10241
C         -9.66827        1.18373        2.61330
C        -10.80577        1.58442        1.91683
C        -11.11751        0.98764        0.69849
C        -10.29078        0.00252        0.16867
C         -6.06198       -0.36083        0.45543
C         -4.68381       -0.57719        0.17381
H         -4.05118        1.36144        0.84805
H         -1.72955        2.19180        0.84187
H          0.14003        2.51506        2.70096
H          0.09653        4.82022        3.62686
H          0.98277        6.71163        2.28666
H          1.88325        6.29719        0.01153
H          1.86769        3.99970       -0.92972
H          2.46761       -2.01425       -1.43626
H          4.84387       -1.28132       -1.49143
H          3.76474        2.52943        0.21208
H         -0.24655       -2.19722       -1.11148
H         -2.57038       -2.97648       -1.07515
H         -4.89169       -3.79397       -1.09829
H         -9.83230       -2.88324       -0.05180
H         -7.97627       -0.15507        2.65350
H         -9.42494        1.63937        3.56805
H        -11.44770        2.35957        2.32306
H        -11.99993        1.29862        0.14820
H        -10.50931       -0.44472       -0.79636
H         -6.38711        0.59082        0.86339
