54
syn_S_NPh_m-OMebenz_2-CF3.log	Energy: -1243246.6253655
C         -3.64757        1.15544        0.11461
C         -4.67669        0.20569        0.03790
C         -6.04311        0.59159        0.07257
C         -6.99453       -0.38980       -0.00930
N         -8.37905       -0.28365        0.01092
C         -9.08902        0.95060        0.05396
C         -8.99286        1.82787       -1.02491
C         -9.65771        3.04791       -0.97975
C        -10.42431        3.38485        0.13334
C        -10.51693        2.50381        1.20697
C         -9.84075        1.28848        1.17612
C         -6.66544       -1.78344       -0.12192
C         -7.91606       -2.49585       -0.17817
C         -8.90215       -1.56739       -0.09910
C        -10.37368       -1.82507       -0.12774
F        -10.99573       -1.07816       -1.05288
F        -10.61505       -3.11203       -0.40697
F        -10.95980       -1.55585        1.05480
C         -5.34889       -2.17150       -0.15453
C         -4.32499       -1.19117       -0.07725
C         -2.96914       -1.54770       -0.10865
C         -1.95307       -0.59991       -0.03229
C         -0.57425       -0.97055       -0.06443
C          0.40555       -0.02317        0.01219
C          1.85385       -0.19285       -0.00312
C          2.60014       -1.37221       -0.09979
C          3.98029       -1.32510       -0.09714
C          2.53861        1.02316        0.09542
C          3.93043        1.09637        0.10006
C          4.64976       -0.09361        0.00250
O          6.00266       -0.16760       -0.00473
C          6.73557        1.03331        0.09190
C          0.03856        1.36585        0.12635
S          1.45757        2.41411        0.21019
C         -1.26034        1.76870        0.16131
C         -2.30429        0.79369        0.08279
H         -3.91024        2.20742        0.20225
H         -6.31185        1.63949        0.16354
H         -8.40137        1.54374       -1.88961
H         -9.58450        3.73174       -1.81966
H        -10.94864        4.33498        0.16383
H        -11.10965        2.76566        2.07783
H         -9.89333        0.59947        2.01133
H         -8.05820       -3.56180       -0.27215
H         -5.07763       -3.22051       -0.23710
H         -2.70567       -2.59976       -0.19521
H         -0.32049       -2.02422       -0.15108
H          2.09559       -2.33104       -0.17735
H          4.57609       -2.22815       -0.17104
H          4.42549        2.05687        0.17799
H          7.78719        0.74609        0.06764
H          6.52509        1.55785        1.03272
H          6.52337        1.70243       -0.75182
H         -1.52568        2.81857        0.24803
