36
syn_O_O_2-Cl_diCF3.log	Energy: -1239683.9495546
C          1.02806       -1.17940       -0.05326
C          2.17725       -0.38403       -0.03993
C          3.48003       -0.96468       -0.06444
C          4.53653       -0.11252       -0.04639
O          5.85879       -0.47423       -0.05837
C          4.42464        1.30720       -0.00625
C          5.79601        1.78380       -0.00591
C          6.23459        3.21109        0.06475
F          5.28113        4.01781       -0.43473
F          6.46206        3.60178        1.32679
F          7.35347        3.43119       -0.63716
C          6.57126        0.67748       -0.01860
C          8.06554        0.49275       -0.04840
F          8.39690       -0.68789        0.47855
F          8.53262        0.53192       -1.30175
F          8.67550        1.45248        0.65257
C          3.18547        1.88932        0.01347
C          2.03244        1.05294        0.00109
C          0.74586        1.60074        0.02587
C         -0.40213        0.80751        0.01335
C         -1.70499        1.39176        0.04048
C         -2.80160        0.57566        0.02724
C         -4.23586        0.77457        0.04519
C         -4.76269       -0.46375        0.01541
Cl        -6.39133       -0.97313        0.01547
C         -2.62158       -0.84305       -0.01366
O         -3.84360       -1.46704       -0.02043
C         -1.41624       -1.46263       -0.04106
C         -0.25413       -0.63024       -0.02769
H          1.13733       -2.26077       -0.08406
H          3.61273       -2.04047       -0.09447
H          3.06670        2.96655        0.03979
H          0.63770        2.68247        0.05627
H         -1.80367        2.47276        0.07134
H         -4.78262        1.70423        0.07580
H         -1.32758       -2.54301       -0.07171
