58
syn_C_NPh_diOMe_diCF3.log	Energy: -1228845.1715373
C         -3.67030       -0.88370       -0.64202
C         -4.40925       -0.28095        0.37584
C         -5.81063       -0.06535        0.25138
C         -6.46530        0.53645        1.28797
N         -7.81400        0.85382        1.40407
C         -8.78125        0.55522        0.39759
C         -9.71470       -0.45566        0.60538
C        -10.63479       -0.75048       -0.39549
C        -10.60619       -0.05356       -1.60009
C         -9.65837        0.94635       -1.80560
C         -8.74491        1.25695       -0.80481
C         -5.81349        0.94772        2.49991
C         -6.84877        1.51611        3.33943
C         -6.65537        2.08547        4.70848
F         -5.42790        1.79468        5.17833
F         -6.77381        3.42291        4.73378
F         -7.53602        1.59028        5.59397
C         -8.01642        1.44923        2.63341
C         -9.39499        1.90708        3.02683
F        -10.00410        2.52739        2.00577
F        -10.16825        0.86765        3.38564
F         -9.35802        2.75902        4.05022
C         -4.46323        0.74809        2.63951
C         -3.72893        0.13578        1.58535
C         -2.35396       -0.07637        1.69661
C         -1.61183       -0.68043        0.67496
C         -0.21910       -0.89315        0.78798
C          0.50104       -1.48961       -0.22842
C          1.92092       -1.71461       -0.11345
O          2.53068       -1.31422        1.04696
C          2.96241       -2.39231        1.86943
C          2.61667       -2.29404       -1.13651
O          3.96170       -2.54083       -1.07804
C          4.78529       -1.38817       -0.94824
C         -0.17426       -1.91079       -1.43536
C          0.59952       -2.54007       -2.46982
C          1.93581       -2.71850       -2.32416
C         -1.53561       -1.70557       -1.55600
C         -2.29066       -1.09598       -0.52880
H         -4.17969       -1.19771       -1.55038
H         -6.33287       -0.37452       -0.64842
H         -9.71769       -0.99782        1.54445
H        -11.36992       -1.53264       -0.23487
H        -11.32278       -0.28995       -2.38051
H         -9.63513        1.49224       -2.74348
H         -8.00666        2.04070       -0.94181
H         -3.94069        1.04803        3.53961
H         -1.84321        0.23733        2.60419
H          0.29874       -0.57433        1.68691
H          3.72851       -2.99092        1.36529
H          2.11458       -3.03390        2.13805
H          3.37909       -1.94150        2.77195
H          5.81526       -1.74482       -1.00370
H          4.61672       -0.87870        0.00517
H          4.59718       -0.68703       -1.77035
H          0.09365       -2.86463       -3.37468
H          2.53647       -3.18703       -3.09714
H         -2.04398       -2.02056       -2.46466
