50
syn_S_NPh_m-CF3benz_2-F.log	Energy: -1233657.5714241
C         -3.59274        1.17139        0.11208
C         -4.62925        0.23479        0.03028
C         -5.99471        0.63817        0.05684
C         -6.95664       -0.32613       -0.03231
N         -8.34639       -0.20404       -0.01309
C         -9.09691        0.99911        0.02698
C         -8.82928        2.00884       -0.89711
C         -9.55134        3.19607       -0.84653
C        -10.55223        3.36853        0.10585
C        -10.82414        2.35098        1.01633
C        -10.09193        1.16933        0.98825
C         -6.64992       -1.73211       -0.13348
C         -7.90799       -2.44067       -0.17580
C         -8.85948       -1.48522       -0.10072
F        -10.17227       -1.62133       -0.11197
C         -5.34074       -2.13406       -0.15810
C         -4.29938       -1.16631       -0.08186
C         -2.95154       -1.54062       -0.10696
C         -1.92132       -0.60421       -0.02599
C         -0.55010       -0.99377       -0.05148
C          0.44180       -0.05760        0.02994
C          1.88775       -0.25349        0.02055
C          2.60364       -1.44859       -0.07012
C          3.98887       -1.42613       -0.05948
C          2.58916        0.95818        0.12219
C          3.97898        0.99306        0.13310
C          4.67019       -0.20891        0.04189
C          6.17403       -0.21201       -0.00194
F          6.68744       -1.21773        0.72775
F          6.62907       -0.37280       -1.25793
F          6.69811        0.93296        0.46460
C          0.09790        1.33456        0.14230
S          1.53050        2.36341        0.23311
C         -1.19722        1.75419        0.17074
C         -2.25134        0.79318        0.08723
H         -3.84273        2.22659        0.19806
H         -6.24640        1.68969        0.15250
H         -8.06410        1.85479       -1.65132
H         -9.33903        3.98271       -1.56390
H        -11.11959        4.29337        0.13779
H        -11.60218        2.48029        1.76218
H        -10.28466        0.38102        1.70793
H         -8.07257       -3.50379       -0.25350
H         -5.08236       -3.18693       -0.22983
H         -2.70059       -2.59586       -0.19140
H         -0.30964       -2.05063       -0.13693
H          2.07768       -2.39542       -0.14574
H          4.54935       -2.35244       -0.12385
H          4.51569        1.93138        0.21522
H         -1.44932        2.80736        0.25614
