41
syn_S_NPh_2-F_C.log	Energy: -925824.2594398
C          2.09077       -0.99573        0.17047
C          3.10725       -0.04375        0.02631
C          4.47932       -0.41900        0.03807
C          5.42426        0.56103       -0.10040
N          6.81255        0.47594       -0.14104
C          7.59568       -0.69109        0.00711
C          7.34426       -1.57819        1.05543
C          8.12445       -2.72034        1.19543
C          9.16971       -2.97316        0.31081
C          9.42673       -2.07877       -0.72449
C          8.63695       -0.94557       -0.88635
C          5.07863        1.94738       -0.28742
C          6.32187        2.66497       -0.44391
C          7.31873        1.75216       -0.35485
C          3.76013        2.32357       -0.29937
C          2.74209        1.34421       -0.13670
C          1.38573        1.69115       -0.13933
C          0.37613        0.74092        0.00759
C         -1.00322        1.10310        0.00471
C         -1.97529        0.15120        0.14919
C         -3.41478        0.31557        0.17220
C         -4.03727       -0.86091        0.33295
F         -5.34564       -1.06042        0.39595
C         -1.59037       -1.23108        0.30509
S         -3.00259       -2.27758        0.47335
C         -0.28703       -1.62405        0.31432
C          0.74215       -0.64452        0.16551
H          2.36372       -2.04203        0.29068
H          4.74876       -1.46484        0.14577
H          6.55144       -1.35905        1.76321
H          7.92324       -3.40747        2.01166
H          9.78106       -3.86235        0.42806
H         10.23641       -2.27010       -1.42208
H          8.81195       -0.26329       -1.71272
H          6.44097        3.72823       -0.59223
H          8.39022        1.89221       -0.39715
H          3.47854        3.36375       -0.44030
H          1.11202        2.73710       -0.26106
H         -1.27296        2.14928       -0.11431
H         -3.93162        1.26119        0.07320
H         -0.00987       -2.66780        0.43244
