61
syn_C_NPh_p-CNbenz_m-OMebenz.log	Energy: -984763.9921694
C         -3.40253        1.38342        0.16969
C         -2.09381        0.91248        0.26348
C         -0.97599        1.75673       -0.01737
C          0.27922        1.23713        0.09688
N          1.51447        1.84247       -0.13118
C          1.70777        3.18810       -0.52583
C          1.19994        4.22375        0.25915
C          1.38324        5.54430       -0.13656
C          2.08953        5.83682       -1.30056
C          2.60351        4.80139       -2.07678
C          2.40496        3.47748       -1.69938
C          0.51482       -0.13596        0.47372
C          1.95485       -0.32128        0.46139
C          2.79031       -1.40236        0.74266
C          4.16127       -1.24599        0.65260
C          2.52508        0.90560        0.08800
C          3.90307        1.09383        0.00039
C          4.71394       -0.00436        0.28743
O          6.06806        0.02947        0.24172
C          6.69255        1.24236       -0.11321
C         -0.53724       -0.95932        0.74596
C         -1.87348       -0.46252        0.65384
C         -2.97127       -1.27616        0.92768
C         -4.28447       -0.80066        0.83427
C         -5.40297       -1.62621        1.11248
C         -6.69725       -1.16613        1.02194
C         -7.86975       -2.00579        1.30667
C         -7.75671       -3.34693        1.69726
C         -8.88339       -4.11714        1.95991
C         -8.72685       -5.48822        2.35820
N         -8.60141       -6.59509        2.67979
C         -9.16677       -1.45290        1.18655
C        -10.29525       -2.24755        1.45617
C        -10.16963       -3.56463        1.83885
C         -6.91228        0.20695        0.62805
C         -8.26400        0.70841        0.52519
C         -9.32903       -0.07246        0.78758
C         -5.83854        1.02492        0.35403
C         -4.50359        0.56373        0.44440
H         -3.57400        2.41630       -0.12540
H         -1.14327        2.78603       -0.31870
H          0.66966        3.98513        1.17579
H          0.98370        6.34753        0.47494
H          2.23790        6.86894       -1.60248
H          3.14880        5.02297       -2.98915
H          2.77943        2.66194       -2.31037
H          2.37082       -2.36111        1.03323
H          4.83945       -2.06532        0.86250
H          4.31186        2.05887       -0.27084
H          7.76499        1.04608       -0.09074
H          6.45515        2.04121        0.60097
H          6.40393        1.56280       -1.12268
H         -0.37827       -1.99649        1.02922
H         -2.80232       -2.31003        1.22137
H         -5.19582       -2.65127        1.40384
H         -6.78433       -3.81297        1.80352
H        -11.28276       -1.80537        1.35825
H        -11.04263       -4.17379        2.04599
H         -8.40044        1.74443        0.22658
H        -10.33846        0.32068        0.70488
H         -6.01707        2.05658        0.05856
