49
syn_S_NPh_2-Cl_diOMe.log	Energy: -1295643.1066023
C          0.33622       -0.88864        0.29737
C          1.54480       -0.19721        0.18225
C          2.79397       -0.88587        0.17546
C          3.93981       -0.15479        0.05743
N          5.26916       -0.56918        0.03313
C          5.72103       -1.91272       -0.01461
C          5.19284       -2.78358       -0.96790
C          5.61249       -4.10903       -1.00067
C          6.57305       -4.56276       -0.10103
C          7.10762       -3.68597        0.83950
C          6.67717       -2.36521        0.89373
C          3.93022        1.28083       -0.04201
C          5.30767        1.69607       -0.12094
O          5.74051        2.99051       -0.22576
C          5.70717        3.68979        1.00854
C          6.07398        0.56430       -0.07222
O          7.38756        0.34120       -0.12586
C          8.22409        1.44982       -0.43218
C          2.74320        1.96223       -0.04380
C          1.51833        1.24294        0.06624
C          0.28307        1.89603        0.06841
C         -0.92459        1.20335        0.18243
C         -2.17835        1.87783        0.18480
C         -3.34782        1.17304        0.29946
C         -4.70722        1.66961        0.32234
C         -5.60722        0.67795        0.44848
Cl        -7.32034        0.85961        0.51502
C         -3.30200       -0.26118        0.41794
S         -4.92306       -0.93991        0.55170
C         -2.12450       -0.94840        0.42007
C         -0.89619       -0.23239        0.30168
H          0.35662       -1.97279        0.38639
H          2.81356       -1.96752        0.26455
H          4.46054       -2.41538       -1.67947
H          5.19564       -4.78464       -1.74136
H          6.90472       -5.59598       -0.13301
H          7.85617       -4.03400        1.54477
H          7.07829       -1.67970        1.63183
H          5.99540        4.72090        0.79346
H          6.41341        3.25286        1.72797
H          4.70321        3.67412        1.44951
H          7.91078        1.92820       -1.36348
H          9.22653        1.03485       -0.53794
H          8.21064        2.18727        0.37588
H          2.72309        3.04470       -0.13499
H          0.26175        2.98014       -0.02106
H         -2.19621        2.96095        0.09442
H         -4.97243        2.71685        0.24690
H         -2.09919       -2.03074        0.51001
