45
syn_C_O_diOMe_2-OMe.log	Energy: -745328.2035219
C          0.97028       -1.39042        1.23443
C         -0.11142       -0.93698        0.49202
C         -1.45015       -1.01161        1.00388
C         -2.44225       -0.54672        0.21374
O         -3.78204       -0.53518        0.53200
C         -2.25543        0.01386       -1.09458
C         -3.57961        0.36832       -1.55031
C         -4.41334        0.01623       -0.54512
O         -5.73065        0.13392       -0.47410
C         -6.37675       -0.30979        0.71656
C         -0.99053        0.09549       -1.60308
C          0.11675       -0.37667       -0.82637
C          1.41917       -0.31093       -1.30892
C          2.51792       -0.76882       -0.56215
C          3.83766       -0.69957       -1.05435
C          4.90962       -1.15408       -0.30618
C          6.25854       -1.09231       -0.80828
O          6.44435       -0.56319       -2.05963
C          6.82946       -1.52330       -3.03618
C          7.30406       -1.53652       -0.04764
O          8.60256       -1.51164       -0.48319
C          9.13044       -0.21460       -0.73108
C          4.68299       -1.71403        1.00456
C          5.81161       -2.18967        1.75306
C          7.06755       -2.09992        1.24678
C          3.38967       -1.78334        1.49470
C          2.28714       -1.32414        0.74665
H          0.79697       -1.81000        2.22312
H         -1.64436       -1.42670        1.98715
H         -3.87002        0.81854       -2.48609
H         -7.43690       -0.11815        0.55527
H         -6.02292        0.25067        1.58623
H         -6.20956       -1.37823        0.87792
H         -0.80443        0.51283       -2.58833
H          1.59645        0.10922       -2.29650
H          4.02125       -0.27414       -2.03585
H          6.07435       -2.31469       -3.11584
H          7.80015       -1.96747       -2.79121
H          6.89635       -0.98659       -3.98439
H         10.18101       -0.35922       -0.98959
H          9.05894        0.40841        0.16885
H          8.60783        0.28074       -1.55494
H          5.64181       -2.61813        2.73685
H          7.93286       -2.45000        1.80041
H          3.21677       -2.20336        2.48331
