42
syn_C_C_2-F_tetClbenz.log	Energy: -1843371.3752525
C         -1.76821       -0.54133        2.19562
C         -2.95476       -0.03522        1.67550
C         -4.17389       -0.02730        2.40225
C         -5.33347        0.47939        1.87087
C         -6.58188        0.30059        2.56850
C         -7.75371        0.62278        1.99877
C         -5.34532        1.09007        0.55423
C         -6.61144        1.67744        0.06078
C         -6.71746        2.59347       -1.01190
Cl        -5.32616        3.40990       -1.67169
C         -7.95870        2.96846       -1.53089
Cl        -8.06403        4.04828       -2.87828
C         -7.81386        1.31631        0.72590
C         -9.05781        1.69693        0.18757
Cl       -10.52863        1.17709        0.95754
C         -9.14137        2.48269       -0.95383
Cl       -10.67494        2.90205       -1.62964
C         -4.19477        1.00157       -0.19254
C         -2.98347        0.45858        0.32432
C         -1.82546        0.40988       -0.44556
C         -0.62261       -0.09838        0.06958
C          0.55932       -0.14604       -0.69986
C          1.74211       -0.64670       -0.18489
C          2.94841       -0.69871       -0.96212
C          4.07558       -1.19878       -0.40571
F          5.21244       -1.25608       -1.11495
C          1.77008       -1.13344        1.17637
C          3.00662       -1.65020        1.69684
C          4.12910       -1.68505        0.93525
C          0.61837       -1.09193        1.94131
C         -0.59398       -0.58404        1.42832
H         -1.74866       -0.91624        3.21639
H         -4.19706       -0.48071        3.39044
H         -6.55982       -0.16442        3.54997
H         -8.68301        0.41908        2.51380
H         -4.17176        1.33170       -1.22050
H         -1.84758        0.78247       -1.46706
H          0.53420        0.22149       -1.72294
H          2.95580       -0.34028       -1.98598
H          3.02631       -2.01533        2.71979
H          5.06990       -2.07120        1.31170
H          0.64276       -1.45871        2.96502
