61
syn_O_NPh_m-OMebenz_p-OMebenz.log	Energy: -997361.2973763
C         -3.30552       -1.54898        0.57906
C         -4.38881       -0.73369        0.23615
C         -5.73505       -1.16987        0.41435
C         -6.74989       -0.32469        0.06454
N         -8.12833       -0.51614        0.12520
C         -8.77834       -1.67718        0.60159
C         -8.49954       -2.15905        1.88163
C         -9.13419       -3.30740        2.34239
C        -10.06372       -3.96623        1.54180
C        -10.34848       -3.47736        0.26955
C         -9.70097       -2.34271       -0.20726
C         -6.49770        0.97880       -0.49350
C         -7.79826        1.57046       -0.76850
C         -8.18280        2.79729       -1.28683
C         -9.54359        3.08244       -1.41274
O         -9.84098        4.30606       -1.93469
C        -11.19735        4.65306       -2.07436
C         -8.76640        0.62516       -0.37878
C        -10.11922        0.90652       -0.48816
C        -10.50102        2.14264       -1.01142
C         -5.21760        1.41482       -0.67239
C         -4.12413        0.57438       -0.30934
C         -2.79973        0.98630       -0.47532
C         -1.71904        0.17238       -0.13164
C         -0.37040        0.61077       -0.30904
C          0.65595       -0.21766        0.03926
C          2.10732       -0.14153        0.01268
C          3.05126        0.80859       -0.37938
C          4.39751        0.51386       -0.25214
C          2.55693       -1.36050        0.52132
C          3.89506       -1.69314        0.66430
C          4.81966       -0.72537        0.26489
O          6.16254       -0.89023        0.33829
C          6.65552       -2.10952        0.84681
C          0.36749       -1.51377        0.57739
O          1.52653       -2.19365        0.86436
C         -0.88724       -1.98824        0.77023
C         -1.98236       -1.13833        0.41270
H         -3.50129       -2.53727        0.98922
H         -5.92889       -2.15970        0.81528
H         -7.79180       -1.62535        2.50818
H         -8.91090       -3.67984        3.33758
H        -10.56381       -4.85753        1.90783
H        -11.06732       -3.98949       -0.36291
H         -9.89725       -1.97022       -1.20791
H         -7.45676        3.54322       -1.59350
H        -11.20966        5.65658       -2.50196
H        -11.71425        4.66851       -1.10539
H        -11.72413        3.96716       -2.75146
H        -10.87201        0.19256       -0.17124
H        -11.55899        2.36104       -1.09774
H         -5.01513        2.39567       -1.09509
H         -2.60445        1.97429       -0.88733
H         -0.18388        1.59936       -0.71986
H          2.73902        1.76825       -0.77975
H          5.15968        1.22680       -0.54618
H          4.17959       -2.65689        1.06610
H          7.74265       -2.02950        0.81790
H          6.33813       -2.95973        0.22958
H          6.33147       -2.27294        1.88261
H         -1.06565       -2.97652        1.18040
