45
syn_S_NPh_2-Cl_3-OMe.log	Energy: -1223800.4746669
C          2.16725       -0.96796       -0.21743
C          3.10374        0.05080       -0.00589
C          4.50142       -0.21519       -0.02883
C          5.36925        0.82404        0.17376
N          6.75847        0.84491        0.23380
C          7.63131       -0.25362        0.07518
C          7.47007       -1.13247       -0.99789
C          8.33781       -2.20869       -1.14587
C          9.38200       -2.40211       -0.24541
C          9.54983       -1.51429        0.81371
C          8.67303       -0.44863        0.98366
C          4.90543        2.16113        0.43633
C          6.09130        2.96062        0.65394
O          6.11918        4.28905        0.94864
C          5.84494        5.12160       -0.16766
C          7.16610        2.14447        0.52977
C          3.56434        2.43618        0.47454
C          2.62709        1.39191        0.24451
C          1.24821        1.62783        0.26605
C          0.31811        0.61038        0.05299
C         -1.08454        0.85947        0.07567
C         -1.97512       -0.15881       -0.13635
C         -3.42168       -0.11005       -0.15303
C         -3.96680       -1.31555       -0.39496
Cl        -5.65055       -1.67035       -0.49360
C         -1.48346       -1.49077       -0.38370
S         -2.81185       -2.62329       -0.62563
C         -0.15146       -1.77568       -0.41431
C          0.79409       -0.72815       -0.19583
H          2.52346       -1.97874       -0.40427
H          4.84972       -1.23015       -0.19001
H          6.67899       -0.95705       -1.71965
H          8.20566       -2.88950       -1.98133
H         10.06185       -3.23913       -0.36919
H         10.35840       -1.65912        1.52370
H          8.78035        0.22580        1.82782
H          5.85395        6.14922        0.20013
H          4.86350        4.89864       -0.60443
H          6.61257        5.00067       -0.94264
H          8.21722        2.38260        0.60559
H          3.20788        3.43780        0.69886
H          0.89130        2.63780        0.45636
H         -1.43877        1.86967        0.26411
H         -4.00054        0.79051        0.01010
H          0.20960       -2.78304       -0.60107
