42
syn_O_NPh_diCl_3-CN.log	Energy: -1295541.0484623
C         -1.13655        1.05569        0.72602
C         -2.14446        0.10189        0.54557
C         -3.51790        0.44079        0.70343
C         -4.45052       -0.54072        0.51770
N         -5.84489       -0.48637        0.59158
C         -6.62867        0.65067        0.91884
C         -6.35087        1.37771        2.07606
C         -7.12830        2.48648        2.39129
C         -8.18980        2.85795        1.56986
C         -8.46847        2.12074        0.42248
C         -7.68332        1.02273        0.08709
C         -4.09488       -1.88135        0.14886
C         -5.34434       -2.60449        0.00528
C         -5.49462       -3.97104       -0.34159
N         -5.59088       -5.09161       -0.62868
C         -6.35116       -1.72211        0.27757
C         -2.78148       -2.23019       -0.00779
C         -1.77181       -1.24809        0.19203
C         -0.41588       -1.55854        0.04519
C          0.58881       -0.60785        0.22679
C          1.96642       -0.94959        0.07078
C          2.90910        0.01914        0.25868
C          4.35305        0.07676        0.19674
Cl         5.40680       -1.22240       -0.17735
C          4.69456        1.34917        0.49056
Cl         6.22080        2.08851        0.59111
C          2.51531        1.34723        0.60485
O          3.62352        2.14894        0.74300
C          1.22767        1.73673        0.76796
C          0.21443        0.74484        0.57816
H         -1.41676        2.07280        0.99021
H         -3.79795        1.45823        0.95647
H         -5.54129        1.06296        2.72673
H         -6.91172        3.05262        3.29178
H         -8.79843        3.71990        1.82390
H         -9.29136        2.40795       -0.22445
H         -7.87405        0.46182       -0.82290
H         -7.41879       -1.89143        0.29382
H         -2.50320       -3.24200       -0.28871
H         -0.13656       -2.57538       -0.22065
H          2.24636       -1.96497       -0.19300
H          0.96729        2.75609        1.03114
