41
syn_S_NPh_3-F_3-Cl.log	Energy: -1214215.9335163
C         -0.93007        1.19569        0.78897
C         -1.92260        0.21843        0.65491
C         -3.30101        0.54162        0.79852
C         -4.22370       -0.45943        0.66266
N         -5.61332       -0.42375        0.73452
C         -6.42199        0.70675        0.99915
C         -6.13811        1.53328        2.08727
C         -6.94285        2.63853        2.34037
C         -8.04192        2.91066        1.52978
C         -8.32947        2.07475        0.45440
C         -7.51683        0.98039        0.17913
C         -3.84102       -1.81226        0.35265
C         -5.07397       -2.54977        0.24220
Cl        -5.20366       -4.23595       -0.10333
C         -6.10053       -1.69580        0.46901
C         -2.52144       -2.14594        0.21130
C         -1.52705       -1.14125        0.36459
C         -0.16654       -1.43665        0.23090
C          0.82064       -0.46029        0.36699
C          2.20324       -0.77063        0.22883
C          3.13833        0.21723        0.36910
C          4.57711        0.13300        0.27174
F          5.16925       -1.03537        0.01036
C          5.23033        1.29028        0.46094
C          2.74148        1.56693        0.65479
S          4.14281        2.63023        0.78358
C          1.42793        1.90559        0.79442
C          0.42606        0.89827        0.65415
H         -1.22640        2.21969        1.00550
H         -3.59407        1.56659        1.00123
H         -5.30180        1.29606        2.73685
H         -6.71794        3.27990        3.18696
H         -8.67205        3.76994        1.73615
H         -9.18167        2.28235       -0.18530
H         -7.71683        0.34483       -0.67827
H         -7.16326       -1.88909        0.49419
H         -2.22813       -3.16497       -0.02439
H          0.13016       -2.46009        0.01266
H          2.50772       -1.79046        0.01250
H          6.29943        1.44451        0.43096
H          1.12584        2.92651        1.01028
