30
syn_O_O_2-F_diCl.log	Energy: -1167448.0197655
C          1.01699       -1.25240        0.00458
C          2.20493       -0.51703        0.00419
C          3.47742       -1.16690        0.00400
C          4.57837       -0.37484        0.00362
O          5.88301       -0.80745        0.00339
C          4.53241        1.05067        0.00340
C          5.92082        1.45524        0.00300
Cl         6.51141        3.06491        0.00259
C          6.64738        0.31747        0.00303
Cl         8.32951        0.07942        0.00268
C          3.33073        1.69973        0.00357
C          2.13249        0.92589        0.00397
C          0.87570        1.53771        0.00417
C         -0.31197        0.80410        0.00457
C         -1.58460        1.45395        0.00478
C         -2.72201        0.69678        0.00517
C         -4.14656        0.96897        0.00547
C         -4.71874       -0.24622        0.00579
F         -5.97889       -0.59535        0.00615
C         -2.61042       -0.73105        0.00536
O         -3.86678       -1.29425        0.00575
C         -1.43961       -1.41126        0.00518
C         -0.23606       -0.63850        0.00478
H          1.07092       -2.33860        0.00474
H          3.55107       -2.24896        0.00415
H          3.27675        2.78425        0.00340
H          0.82205        2.62407        0.00402
H         -1.62808        2.53906        0.00462
H         -4.65343        1.92067        0.00545
H         -1.40564       -2.49531        0.00534
