47
syn_C_O_m-CNbenz_p-CNbenz.log	Energy: -838298.8666407
C         -3.35114        0.96825       -0.74896
C         -2.03969        0.55084       -0.53540
C         -0.93150        1.26113       -1.10055
C          0.31129        0.78874       -0.84460
O          1.48331        1.34197       -1.30375
C          0.57364       -0.37155       -0.04675
C          2.02315       -0.50055       -0.04433
C          2.92595       -1.38776        0.52292
C          4.29048       -1.17937        0.29377
C          5.24991       -2.08054        0.86755
N          6.02320       -2.80891        1.33170
C          2.49510        0.56648       -0.82137
C          3.84091        0.79115       -1.06077
C          4.73877       -0.10109       -0.48966
C         -0.46098       -1.06685        0.50360
C         -1.80146       -0.62426        0.27427
C         -2.88860       -1.30619        0.81796
C         -4.20583       -0.88504        0.60188
C         -5.31333       -1.57711        1.15354
C         -6.61203       -1.16947        0.94568
C         -7.77040       -1.87529        1.50987
C         -7.64231       -3.02596        2.30827
C         -8.74375       -3.67316        2.82811
C         -9.07100       -1.38623        1.24543
C        -10.18699       -2.04744        1.77593
C        -10.03220       -3.18101        2.56091
C        -11.18448       -3.84875        3.09838
N        -12.11315       -4.38922        3.53333
C         -6.84327        0.00533        0.13614
C         -8.19987        0.45048       -0.09423
C         -9.25202       -0.20480        0.42839
C         -5.78004        0.69060       -0.40808
C         -4.44132        0.28081       -0.20132
H         -3.53453        1.85100       -1.35685
H         -1.09266        2.14371       -1.70978
H          2.59433       -2.22372        1.12939
H          4.17226        1.62619       -1.66655
H          5.80391        0.02975       -0.64618
H         -0.28990       -1.95003        1.11262
H         -2.70791       -2.18954        1.42643
H         -5.09522       -2.45369        1.75504
H         -6.66158       -3.42950        2.53171
H         -8.62270       -4.55926        3.44164
H        -11.18255       -1.66657        1.56906
H         -8.34831        1.33603       -0.70596
H        -10.26592        0.14060        0.24734
H         -5.96958        1.57292       -1.01506
