47
syn_O_NPh_benz_3-F.log	Energy: -819536.9109832
C         -3.52214        1.01123        0.03990
C         -4.60386        0.11951        0.00594
C         -5.94566        0.58849        0.01656
C         -6.96208       -0.32973       -0.02554
N         -8.34158       -0.15748       -0.00864
C         -9.04442        1.06657        0.04127
C         -8.70342        2.10986       -0.82167
C         -9.40403        3.30948       -0.76492
C        -10.45965        3.46860        0.12895
C        -10.80768        2.42001        0.97591
C        -10.09763        1.22500        0.94340
C         -6.69904       -1.74406       -0.04726
C         -7.99133       -2.37016       -0.03020
F         -8.18979       -3.68986       -0.05621
C         -8.94693       -1.41570       -0.00122
C         -5.41391       -2.21895       -0.05895
C         -4.33348       -1.29810       -0.03991
C         -3.00130       -1.73204       -0.05329
C         -1.93014       -0.84300       -0.02154
C         -0.57689       -1.30729       -0.03548
C          0.44173       -0.40286       -0.00190
C          1.89517       -0.48090       -0.00174
C          2.82666       -1.51482       -0.03619
C          4.18021       -1.19168       -0.02210
C          2.34012        0.84506        0.04576
C          3.67993        1.19067        0.06065
C          4.59762        0.14277        0.02566
C          0.14869        1.00004        0.04682
O          1.30313        1.74094        0.07509
C         -1.10831        1.50473        0.06224
C         -2.19978        0.57682        0.02773
H         -3.72483        2.07930        0.07653
H         -6.13993        1.65477        0.06813
H         -7.90608        1.96884       -1.54398
H         -9.13288        4.11774       -1.43729
H        -11.00910        4.40399        0.16396
H        -11.62674        2.53589        1.67915
H        -10.34415        0.41741        1.62608
H        -10.02214       -1.51087       -0.01095
H         -5.21500       -3.28646       -0.07316
H         -2.79913       -2.80048       -0.08824
H         -0.38327       -2.37593       -0.07237
H          2.50345       -2.55078       -0.07321
H          4.92226       -1.98325       -0.04844
H          3.99124        2.22844        0.09782
H          5.65929        0.36970        0.03580
H         -1.29281        2.57300        0.09963
