50
syn_C_NPh_diF_tetFbenz.log	Energy: -1132175.8303593
C         -3.44336        1.28287       -0.01886
C         -2.13920        0.80274       -0.01597
C         -1.01920        1.68817        0.08123
C          0.23324        1.15460        0.08356
N          1.47071        1.79940        0.16045
C          1.63647        3.21130        0.19283
C          1.11437        3.93581        1.26251
C          1.24429        5.32059        1.28383
C          1.90741        5.97668        0.25045
C          2.43367        5.24599       -0.81198
C          2.28997        3.86405       -0.85002
C          0.46254       -0.26426       -0.02734
C          1.90299       -0.43970       -0.02231
C          2.71204       -1.56268       -0.08976
F          2.17573       -2.78084       -0.19517
C          4.09102       -1.42441       -0.04604
F          4.88752       -2.49126       -0.11353
C          2.47647        0.84311        0.09063
C          3.85859        0.98616        0.15179
F          4.45025        2.17742        0.28293
C          4.65196       -0.15262        0.07412
F          5.97562       -0.03022        0.12230
C         -0.58268       -1.13271       -0.12056
C         -1.92009       -0.62629       -0.11371
C         -3.01309       -1.47956       -0.20480
C         -4.33238       -0.99716       -0.20642
C         -5.44213       -1.86136       -0.29856
C         -6.73284       -1.36409       -0.29903
C         -7.87536       -2.22146       -0.39126
F         -7.67401       -3.54213       -0.47885
C         -9.13481       -1.71847       -0.39071
F        -10.19060       -2.53600       -0.47771
C         -6.96419        0.05810       -0.20482
C         -8.31669        0.54174       -0.20835
C         -9.36597       -0.31618       -0.29814
C         -5.87557        0.90892       -0.11420
C         -4.55179        0.42414       -0.11150
H         -3.61398        2.35466        0.05261
H         -1.18384        2.75869        0.14800
H          0.61601        3.40903        2.07039
H          0.83715        5.88531        2.11675
H          2.01532        7.05658        0.27316
H          2.95027        5.75397       -1.62025
H          2.68302        3.28664       -1.68060
H         -0.41508       -2.20135       -0.20544
H         -2.84442       -2.55151       -0.27788
H         -5.27837       -2.93183       -0.37008
H         -8.48749        1.61162       -0.13764
H        -10.39387        0.02974       -0.30240
H         -6.04318        1.98117       -0.04310
