36
syn_S_O_diF_benz.log	Energy: -951976.9807786
C         -3.41056        1.23621        0.34858
C         -2.11401        0.73514        0.23218
C         -0.97375        1.54033        0.54724
C          0.25184        0.97777        0.40763
O          1.44489        1.60056        0.66415
C          0.46086       -0.36886       -0.03546
C          1.90604       -0.54139       -0.03596
C          2.77392       -1.58339       -0.35108
C          4.14281       -1.36914       -0.22445
C          2.42790        0.68286        0.39565
C          3.78466        0.91969        0.52949
C          4.63773       -0.13442        0.20983
C         -0.60879       -1.15672       -0.34188
C         -1.93006       -0.62563       -0.21621
C         -3.05231       -1.39708       -0.51863
C         -4.35162       -0.89480       -0.40151
C         -5.49104       -1.68867       -0.71152
C         -6.74558       -1.15916       -0.58331
C         -8.02155       -1.78072       -0.84069
F         -8.12078       -3.04065       -1.26561
C         -9.06435       -0.96664       -0.60906
F        -10.34526       -1.26236       -0.75764
C         -6.92061        0.19484       -0.13741
S         -8.62668        0.64562       -0.05316
C         -5.85451        0.98710        0.16909
C         -4.53420        0.46192        0.04519
H         -3.55138        2.26054        0.68586
H         -1.09563        2.56369        0.88528
H          2.39062       -2.54175       -0.68806
H          4.83661       -2.16819       -0.46496
H          4.15681        1.88025        0.86691
H          5.71013        0.00820        0.30070
H         -0.47792       -2.18100       -0.67983
H         -2.91270       -2.42167       -0.85609
H         -5.35947       -2.71250       -1.04872
H         -5.98863        2.01096        0.50623
