46
syn_C_O_tetFbenz_p-CNbenz.log	Energy: -1029438.4755277
C         -3.36355        1.02482       -0.66670
C         -2.05118        0.59587       -0.48174
C         -0.94414        1.34237       -1.00029
C          0.29937        0.85545       -0.77638
O          1.47059        1.43853       -1.19972
C          0.56344       -0.35369       -0.05577
C          2.01305       -0.48125       -0.06277
C          2.91722       -1.40241        0.44510
C          4.28139       -1.17831        0.22870
C          5.24253       -2.11356        0.74187
N          6.01802       -2.86899        1.15649
C          2.48342        0.63436       -0.76949
C          3.82880        0.87526       -0.99508
C          4.72804       -0.05125       -0.48373
C         -0.47036       -1.08429        0.44888
C         -1.81117       -0.62906        0.24963
C         -2.89731       -1.34648        0.74879
C         -4.21469       -0.91336        0.56125
C         -5.31573       -1.64852        1.07149
C         -6.61962       -1.23493        0.89477
C         -7.78933       -1.96750        1.40689
C         -7.71976       -3.16781        2.13198
F         -6.55404       -3.76044        2.42523
C         -8.84822       -3.82284        2.59443
F         -8.72532       -4.95756        3.27649
C         -9.08709       -1.44589        1.16427
C        -10.21543       -2.12219        1.63965
F        -11.43531       -1.62542        1.40755
C        -10.11363       -3.30023        2.34945
F        -11.19392       -3.93211        2.79524
C         -6.85094       -0.00760        0.16199
C         -8.20187        0.46064       -0.04491
C         -9.26317       -0.21507        0.42662
C         -5.79160        0.71536       -0.33839
C         -4.45070        0.30052       -0.16337
H         -3.54907        1.94497       -1.21569
H         -1.10647        2.26250       -1.55084
H          2.58682       -2.27618        0.99647
H          4.15888        1.74804       -1.54588
H          5.79292        0.09041       -0.63248
H         -0.29830       -2.00507        0.99911
H         -2.71630       -2.26737        1.29843
H         -5.09333       -2.55712        1.61114
H         -8.34117        1.38490       -0.59842
H        -10.27239        0.14453        0.26621
H         -5.98874        1.63426       -0.88567
