47
syn_O_NPh_2-Cl_diCF3.log	Energy: -1372168.7116725
C          0.37387       -0.81575        0.13715
C          1.59617       -0.13098        0.14732
C          2.83348       -0.81985        0.05476
C          3.98520       -0.08073        0.06564
N          5.30249       -0.51497       -0.01325
C          5.67368       -1.89161       -0.08946
C          5.39633       -2.60367       -1.25361
C          5.71873       -3.95425       -1.32184
C          6.32204       -4.58390       -0.23566
C          6.59544       -3.86422        0.92409
C          6.26260       -2.51606        1.00577
C          4.00097        1.34788        0.18079
C          5.39576        1.73613        0.17524
C          5.91952        3.13336        0.27307
F          4.93741        3.98949        0.61189
F          6.87670        3.25275        1.20795
F          6.43607        3.57399       -0.88537
C          6.12831        0.58996        0.04277
C          7.62126        0.41569       -0.02872
F          8.11590       -0.02273        1.14191
F          7.95554       -0.48177       -0.96727
F          8.23655        1.55859       -0.32801
C          2.81045        2.02923        0.27140
C          1.58756        1.30892        0.25269
C          0.35662        1.97272        0.33948
C         -0.85870        1.29143        0.32802
C         -2.10164        1.99181        0.41730
C         -3.26940        1.28302        0.40213
C         -4.67848        1.61330        0.46928
C         -5.31989        0.43222        0.40344
Cl        -6.98996        0.07753        0.42830
C         -3.22503       -0.14405        0.29756
O         -4.50165       -0.65058        0.30006
C         -2.08532       -0.87099        0.20997
C         -0.84757       -0.15247        0.22347
H          0.38068       -1.90047        0.05875
H          2.85358       -1.90224       -0.02263
H          4.93720       -2.09284       -2.09403
H          5.50625       -4.51279       -2.22793
H          6.57881       -5.63702       -0.29355
H          7.06227       -4.35379        1.77281
H          6.46035       -1.94516        1.90623
H          2.78625        3.10873        0.35714
H          0.35186        3.05751        0.41895
H         -2.09749        3.07502        0.49552
H         -5.13456        2.58751        0.55376
H         -2.09976       -1.95264        0.13240
