34
syn_C_O_3-Cl_2-CN.log	Energy: -875975.5365517
C          0.93539       -1.47481        0.07823
C         -0.24339       -0.71700        0.03266
C         -1.52408       -1.34044        0.06878
C         -2.61454       -0.52884        0.02049
O         -3.91976       -0.93719        0.04421
C         -2.54695        0.89311       -0.06326
C         -3.92045        1.33409       -0.08958
C         -4.66747        0.20842       -0.02346
C         -6.08180        0.05337       -0.01472
N         -7.23670       -0.04424       -0.00934
C         -1.32324        1.51377       -0.09945
C         -0.14548        0.72169       -0.05224
C          1.12956        1.31067       -0.08642
C          2.28888        0.54999       -0.04069
C          3.59597        1.13863       -0.07476
C          4.71417        0.37167       -0.02839
C          8.12858       -0.45133        0.02217
Cl         8.56217        1.17954       -0.07675
C          8.53007       -1.69945        0.09811
C          4.63800       -1.06398        0.05700
C          5.84202       -1.89321        0.10767
C          7.09854       -1.44575        0.08202
C          3.39875       -1.64876        0.09063
C          2.19415       -0.88165        0.04407
H          0.86081       -2.55800        0.14228
H         -1.61697       -2.41912        0.13240
H         -4.29752        2.34437       -0.14916
H         -1.24028        2.59493       -0.16314
H          1.20576        2.39413       -0.15046
H          3.67578        2.22084       -0.13900
H          9.33172       -2.41986        0.14195
H          5.69666       -2.96815        0.17233
H          5.68805        0.84940       -0.05615
H          3.31426       -2.73140        0.15495
