45
syn_C_S_m-CF3benz_2-CF3.log	Energy: -1251744.5927875
C          1.04236       -2.14581        0.82251
C          0.06774       -1.26175        0.35838
C         -1.32225       -1.57012        0.44889
C         -2.23672       -0.67283       -0.01844
S         -3.98666       -0.84694       -0.00668
C         -1.84143        0.58164       -0.60358
C         -2.99072        1.35335       -1.02011
C         -4.15580        0.72829       -0.76795
C         -5.51944        1.26221       -1.07464
F         -6.19534        0.44482       -1.89717
F         -6.25726        1.39775        0.03839
F         -5.44271        2.46366       -1.66326
C         -0.51196        0.89768       -0.70051
C          0.47901       -0.00711       -0.22594
C          1.84080        0.28929       -0.31149
C          2.81569       -0.59733        0.15408
C          4.20087       -0.30031        0.06955
C          5.16788       -1.16648        0.52528
C          6.60599       -0.87323        0.44488
C          7.10830        0.31936       -0.10701
C          8.46300        0.56955       -0.16972
C          7.53083       -1.81928        0.93849
C          8.90829       -1.55360        0.86932
C          9.37203       -0.37536        0.32304
C         10.84255       -0.07632        0.23901
F         11.23417        0.09717       -1.03640
F         11.14899        1.05831        0.89385
F         11.59631       -1.05660        0.76008
C          4.74843       -2.42151        1.10977
C          5.74980       -3.34508        1.59533
C          7.06254       -3.06170        1.51514
C          3.40999       -2.72876        1.20091
C          2.40517       -1.84579        0.73545
H          0.73521       -3.09150        1.26308
H         -1.62688       -2.51502        0.88922
H         -2.92442        2.32931       -1.48465
H         -0.20081        1.84167       -1.14006
H          2.14967        1.23479       -0.75177
H          4.47287        0.65153       -0.37521
H          6.43014        1.06986       -0.49658
H          8.82602        1.49740       -0.59987
H          9.60865       -2.28858        1.25242
H          5.41101       -4.28135        2.03025
H          7.80420       -3.76467        1.88413
H          3.10966       -3.67614        1.64278
