42
syn_O_NPh_3-CN_diF.log	Energy: -843257.8271308
C          0.85537        1.10412        0.42863
C         -0.33780        0.37938        0.50605
C         -1.60213        1.03502        0.47860
C         -2.73297        0.27293        0.55208
N         -4.07275        0.65686        0.56370
C         -4.58893        1.96679        0.39333
C         -4.15896        2.74294       -0.68288
C         -4.65132        4.03382       -0.83924
C         -5.58766        4.54122        0.05761
C         -6.02495        3.75515        1.12027
C         -5.52021        2.47206        1.29942
C         -2.68108       -1.16284        0.67485
C         -4.04591       -1.59978        0.75667
F         -4.45444       -2.86350        0.87766
C         -4.82902       -0.50104        0.68642
F         -6.14359       -0.40938        0.70774
C         -1.47800       -1.81378        0.70643
C         -0.27469       -1.05962        0.61691
C          0.97749       -1.68047        0.63962
C          2.16907       -0.95744        0.56066
C          3.43557       -1.61557        0.58572
C          4.56985       -0.86048        0.50653
C          5.99968       -1.13473        0.49951
C          6.63304       -2.40295        0.58263
N          7.12766       -3.44961        0.65156
C          6.61309        0.06922        0.39686
C          4.48068        0.55804        0.40120
O          5.74370        1.10105        0.33587
C          3.31200        1.24534        0.37185
C          2.10492        0.48360        0.45258
H          0.80773        2.18768        0.34725
H         -1.64818        2.11692        0.40687
H         -3.45023        2.32863       -1.39284
H         -4.31242        4.63832       -1.67481
H         -5.97698        5.54608       -0.07222
H         -6.75419        4.14544        1.82326
H         -5.84102        1.86265        2.13740
H         -1.43197       -2.89410        0.80331
H          1.02497       -2.76388        0.72237
H          3.48158       -2.69758        0.66672
H          7.65989        0.33166        0.35686
H          3.28396        2.32652        0.29100
