42
syn_S_S_tetFbenz_tetFbenz.log	Energy: -1624543.7416614
C         -3.19604       -0.93992       -2.02064
C         -4.33484       -0.56797       -1.30360
C         -5.64386       -0.69521       -1.85788
C         -6.72429       -0.31853       -1.11901
S         -8.40875       -0.40687       -1.64405
C         -6.58783        0.20787        0.21312
C         -7.89062        0.53285        0.78321
C         -8.19952        1.05933        2.03339
F         -7.23680        1.34425        2.91521
C         -9.51766        1.30068        2.39285
F         -9.80677        1.80422        3.58940
C         -8.94161        0.25167       -0.10547
C        -10.25934        0.49045        0.24784
F        -11.25262        0.22148       -0.60017
C        -10.54919        1.01599        1.49963
F        -11.80767        1.25048        1.85383
C         -5.34324        0.33875        0.76536
C         -4.18538       -0.04324        0.02760
C         -2.90442        0.08056        0.56934
C         -1.76516       -0.29146       -0.14715
C         -0.46120       -0.16242        0.41305
C          0.63989       -0.53355       -0.30866
C          2.04884       -0.48734        0.06599
C          2.63195       -0.05390        1.25245
F          1.88164        0.40602        2.25801
C          4.00899       -0.08991        1.41786
F          4.56075        0.32578        2.55436
C          2.88429       -0.96105       -0.95911
C          4.25959       -0.99931       -0.79981
F          5.04729       -1.45006       -1.77672
C          4.82428       -0.56324        0.39107
F          6.14140       -0.59401        0.55980
C          0.47667       -1.05607       -1.63936
S          2.01664       -1.47391       -2.39744
C         -0.75141       -1.19588       -2.21161
C         -1.91542       -0.81572       -1.47844
H         -3.30938       -1.33650       -3.02685
H         -5.75680       -1.09173       -2.86266
H         -5.22236        0.73334        1.76779
H         -2.79108        0.47715        1.57558
H         -0.35598        0.23308        1.41690
H         -0.86486       -1.59171       -3.21660
