49
syn_S_NPh_2-OMe_2-OMe.log	Energy: -1007259.0726796
C          0.52209       -1.00478        0.16187
C          1.72771       -0.29846        0.15145
C          2.98374       -0.97262        0.10267
C          4.12275       -0.22293        0.08808
N          5.45877       -0.62634        0.05915
C          5.92741       -1.95806       -0.06864
C          5.44045       -2.76282       -1.09892
C          5.87725       -4.07804       -1.21392
C          6.81412       -4.58667       -0.31862
C          7.30726       -3.77543        0.70007
C          6.85928       -2.46633        0.83559
C          4.11059        1.21792        0.13941
C          5.48665        1.65067        0.13594
C          6.24342        0.51899        0.08768
O          7.56465        0.33141        0.05167
C          8.34019        1.51648        0.04044
C          2.91253        1.87919        0.18941
C          1.69137        1.14417        0.19166
C          0.45024        1.78626        0.23692
C         -0.75489        1.08029        0.24574
C         -2.01545        1.74310        0.29141
C         -3.18505        1.02816        0.29974
C         -4.54696        1.50486        0.34173
C         -5.45307        0.50402        0.33718
O         -6.78012        0.68836        0.37629
C         -7.62418       -0.44793        0.33150
C         -3.12073       -0.41034        0.26174
S         -4.73341       -1.12193        0.28053
C         -1.94091       -1.08912        0.21730
C         -0.71447       -0.35908        0.20779
H          0.54888       -2.09231        0.13336
H          3.01259       -2.05771        0.08350
H          4.72624       -2.35092       -1.80486
H          5.49228       -4.70213       -2.01465
H          7.15917       -5.61156       -0.41434
H          8.03657       -4.16657        1.40295
H          7.22741       -1.83297        1.63496
H          5.84455        2.66823        0.16588
H          8.10065        2.12621       -0.83824
H          9.38115        1.19709       -0.00102
H          8.16497        2.10258        0.95009
H          2.87641        2.96453        0.23269
H          0.42269        2.87364        0.26688
H         -2.03806        2.82953        0.31992
H         -4.82963        2.54932        0.37378
H         -8.64375       -0.06426        0.37023
H         -7.45011       -1.10482        1.19211
H         -7.48174       -1.01095       -0.59849
H         -1.91080       -2.17493        0.18912
