62
syn_NPh_NPh_2-OMe_diCF3.log	Energy: -1288106.8776812
C          0.55352       -0.95891        0.02086
C          1.74993       -0.23110        0.06026
C          3.01446       -0.87590        0.04232
C          4.13813       -0.09540        0.07659
N          5.47383       -0.48321        0.06749
C          5.89694       -1.84561        0.04575
C          5.68348       -2.60230       -1.10385
C          6.05810       -3.94092       -1.12138
C          6.65008       -4.51530        0.00106
C          6.85910       -3.75211        1.14624
C          6.47337       -2.41591        1.17674
C          4.09846        1.33509        0.14480
C          5.47791        1.77417        0.18415
C          5.94707        3.19160        0.25484
F          4.92314        4.02293        0.52423
F          6.86096        3.37827        1.22250
F          6.49580        3.61368       -0.89661
C          6.25684        0.65270        0.12023
C          7.75583        0.53344        0.11405
F          8.22102        0.15196        1.31705
F          8.16298       -0.38024       -0.77994
F          8.34133        1.68893       -0.19890
C          2.88081        1.97423        0.16381
C          1.68593        1.21037        0.11792
C          0.42864        1.83049        0.13232
C         -0.76021        1.10553        0.09264
C         -2.03222        1.75392        0.11407
C         -3.17942        1.01131        0.06964
C         -4.58298        1.34481        0.08738
C         -5.25749        0.16296        0.03331
O         -6.56136       -0.11860        0.01062
C         -7.42116        1.00742        0.02466
C         -3.08994       -0.42871       -0.00010
N         -4.39350       -0.92425       -0.01888
C         -4.76901       -2.28457       -0.15639
C         -5.64399       -2.86863        0.75865
C         -6.00148       -4.20426        0.61357
C         -5.47344       -4.96543       -0.42600
C         -4.59302       -4.38073       -1.33209
C         -4.24742       -3.03955       -1.20708
C         -1.90304       -1.09756       -0.00908
C         -0.69389       -0.33835        0.03393
H          0.60170       -2.04499       -0.02151
H          3.07581       -1.95892        0.00230
H          5.23149       -2.13405       -1.97243
H          5.89524       -4.53334       -2.01625
H          6.94788       -5.55909       -0.01706
H          7.31637       -4.19852        2.02355
H          6.62002       -1.81205        2.06533
H          2.81472        3.05436        0.21352
H          0.38223        2.91654        0.17737
H         -2.07080        2.83843        0.17092
H         -5.01173        2.33385        0.13445
H         -8.43645        0.61346       -0.00895
H         -7.23748        1.64373       -0.84848
H         -7.27710        1.59264        0.94020
H         -6.03916       -2.27317        1.57405
H         -6.68703       -4.65481        1.32479
H         -5.74761       -6.01072       -0.52967
H         -4.18168       -4.96593       -2.14890
H         -3.57836       -2.56929       -1.92075
H         -1.85711       -2.18159       -0.04243
