38
syn_O_O_2-CN_m-CNbenz.log	Energy: -740524.4033010
C         -3.35632        1.24437        0.11372
C         -2.05927        0.73667        0.07065
C         -0.92357        1.57846        0.29701
C          0.30286        1.00596        0.23738
O          1.49510        1.65887        0.42762
C          0.51901       -0.38344       -0.03763
C          1.96311       -0.55088       -0.00394
C          2.83367       -1.62207       -0.18290
C          4.19952       -1.39786       -0.07254
C          2.47779        0.72070        0.28136
C          3.82919        0.97824        0.39788
C          4.68849       -0.11206        0.21453
C          6.10709        0.08979        0.32279
N          7.25196        0.24864        0.40937
C         -0.54457       -1.20761       -0.25702
C         -1.86743       -0.66824       -0.20867
C         -2.98385       -1.47321       -0.42654
C         -4.28798       -0.96622       -0.38398
C         -5.41284       -1.80825       -0.61004
C         -6.67016       -1.26572       -0.55820
C         -8.01182       -1.77167       -0.72580
C         -8.82757       -0.70873       -0.54582
C        -10.24774       -0.63191       -0.59707
N        -11.40503       -0.59774       -0.64456
C         -6.82986        0.12596       -0.27994
O         -8.15626        0.45445       -0.27516
C         -5.79737        0.98069       -0.05558
C         -4.47943        0.43859       -0.10465
H         -3.50176        2.30112        0.32375
H         -1.05042        2.63463        0.50776
H          2.45663       -2.61509       -0.40458
H          4.90214       -2.21253       -0.20675
H          4.20604        1.96943        0.61910
H         -0.40831       -2.26467       -0.46760
H         -2.83851       -2.53046       -0.63669
H         -5.25992       -2.86287       -0.81934
H         -8.32296       -2.78158       -0.94814
H         -5.96037        2.03233        0.15264
