45
syn_S_NPh_2-OMe_2-F.log	Energy: -997666.7657227
C          0.39827       -1.01867        0.10361
C          1.61618       -0.33709        0.19026
C          2.86009       -1.02868        0.11964
C          4.01160       -0.30165        0.20511
N          5.34246       -0.72714        0.18217
C          5.81316       -2.04638       -0.03564
C          5.34250       -2.77502       -1.12812
C          5.79026       -4.07540       -1.33261
C          6.72159       -4.64174       -0.46631
C          7.19848       -3.90441        0.61407
C          6.73913       -2.61173        0.84014
C          4.02102        1.12948        0.38317
C          5.40461        1.53977        0.46263
C          6.12321        0.40364        0.33776
F          7.43515        0.24990        0.33444
C          2.83271        1.80666        0.45504
C          1.60193        1.09695        0.35575
C          0.37032        1.75708        0.42078
C         -0.84498        1.07627        0.33275
C         -2.09539        1.75695        0.39995
C         -3.27595        1.06648        0.31211
C         -4.63014        1.56343        0.35695
C         -5.55204        0.58392        0.23907
O         -6.87563        0.78938        0.25498
C         -7.73788       -0.32346        0.09778
C         -3.23423       -0.36501        0.15025
S         -4.85788       -1.04463        0.06093
C         -2.06562       -1.06003        0.08045
C         -0.82694       -0.35547        0.17008
H          0.40765       -2.09981       -0.01915
H          2.87218       -2.10837        0.00713
H          4.63609       -2.31626       -1.81252
H          5.41931       -4.64177       -2.18131
H          7.07527       -5.65438       -0.63313
H          7.92338       -4.34058        1.29438
H          7.09124       -2.04005        1.69194
H          5.79858        2.53557        0.59163
H          2.81359        2.88428        0.59313
H          0.36028        2.83793        0.54514
H         -2.10069        2.83694        0.52274
H         -4.89650        2.60624        0.47233
H         -8.75117        0.07597        0.13977
H         -7.59916       -1.04919        0.90794
H         -7.57922       -0.81359       -0.87004
H         -2.05290       -2.13960       -0.04161
