41
syn_S_NPh_2-Cl_2-F.log	Energy: -1214215.7592255
C          0.29116       -0.84094        0.18784
C          1.54102       -0.21546        0.21060
C          2.74804       -0.97019        0.14785
C          3.93444       -0.29689        0.16874
N          5.24043       -0.78852        0.13659
C          5.63919       -2.14054       -0.02073
C          5.11577       -2.89528       -1.07042
C          5.49146       -4.22617       -1.21481
C          6.40319       -4.79778       -0.33130
C          6.93294       -4.03502        0.70593
C          6.54563       -2.71003        0.87223
C          4.01823        1.14018        0.27063
C          5.42134        1.48398        0.29568
C          6.07977        0.30788        0.21363
F          7.38115        0.08785        0.18797
C          2.86646        1.87799        0.33391
C          1.60094        1.22479        0.30064
C          0.40518        1.94664        0.35902
C         -0.84271        1.32069        0.33464
C         -2.05564        2.06456        0.39437
C         -3.26635        1.42414        0.36936
C         -4.59539        1.99517        0.41965
C         -5.55391        1.05274        0.37317
Cl        -7.25498        1.32806        0.40902
C         -3.30640       -0.01306        0.28204
S         -4.96694       -0.60254        0.26537
C         -2.17125       -0.76521        0.22280
C         -0.90023       -0.11678        0.24725
H          0.24653       -1.92592        0.12192
H          2.70564       -2.05335        0.09145
H          4.42472       -2.43365       -1.76853
H          5.07964       -4.81318       -2.02988
H          6.70061       -5.83481       -0.45119
H          7.64283       -4.47545        1.39907
H          6.93856       -2.11687        1.69087
H          5.86679        2.46402        0.36237
H          2.90209        2.96088        0.41473
H          0.44901        3.03160        0.42637
H         -2.00824        3.14849        0.46019
H         -4.79777        3.05688        0.48671
H         -2.21095       -1.84882        0.15729
