37
syn_S_O_2-CN_benz.log	Energy: -885340.6621515
C         -3.35458        1.23490        0.43798
C         -2.06304        0.73106        0.29231
C         -0.91678        1.50571        0.65904
C          0.30437        0.94323        0.48670
O          1.50051        1.53954        0.78357
C          0.50491       -0.37573       -0.03934
C          1.94849       -0.55855       -0.04727
C          2.80950       -1.58572       -0.42441
C          4.17935       -1.38955       -0.28168
C          2.47790        0.63270        0.46050
C          3.83582        0.85103        0.61166
C          4.68193       -0.18755        0.22923
C         -0.56932       -1.13441       -0.39643
C         -1.88740       -0.60138       -0.24036
C         -3.01336       -1.34272       -0.59248
C         -4.31057       -0.83700       -0.44616
C         -5.45226       -1.59947       -0.80727
C         -6.71218       -1.07597       -0.65162
C         -7.98370       -1.68266       -0.95508
C         -9.03189       -0.87241       -0.67313
C        -10.40516       -1.19074       -0.86398
N        -11.52562       -1.44756       -1.01855
C         -6.87247        0.25056       -0.12046
S         -8.56878        0.69729       -0.01540
C         -5.80016        1.01633        0.23861
C         -4.48552        0.49075        0.08473
H         -3.48751        2.23702        0.83865
H         -1.03121        2.50685        1.06016
H          2.42028       -2.51858       -0.82080
H          4.86813       -2.17718       -0.56955
H          4.21366        1.78631        1.00856
H          5.75505       -0.05885        0.33094
H         -0.44599       -2.13653       -0.79756
H         -2.88148       -2.34521       -0.99345
H         -5.31851       -2.60092       -1.20780
H         -8.09728       -2.67914       -1.36477
H         -5.92682        2.01776        0.63936
