48
syn_C_C_benz_tetClbenz.log	Energy: -1877502.0744954
C         -1.83419       -0.48339        2.70716
C         -2.93752       -0.03497        1.97967
C         -4.20986        0.17969        2.56447
C         -5.28332        0.62256        1.82894
C         -6.59590        0.65279        2.42203
C         -7.68973        0.90843        1.68669
C         -5.13858        0.94992        0.42501
C         -6.31374        1.48080       -0.30051
C         -6.26464        2.15683       -1.54279
Cl        -4.76983        2.75216       -2.21312
C         -7.42743        2.47300       -2.24787
Cl        -7.34230        3.25098       -3.79085
C         -7.59152        1.32485        0.30136
C         -8.75562        1.64397       -0.42430
Cl       -10.31965        1.36884        0.28634
C         -8.68637        2.17575       -1.70422
Cl       -10.12341        2.51654       -2.60077
C         -3.93159        0.65714       -0.16921
C         -2.81379        0.17473        0.56432
C         -1.59288       -0.08756       -0.06038
C         -0.48512       -0.53654        0.66435
C          0.76188       -0.79912        0.03923
C          1.86019       -1.23970        0.74075
C          3.15799       -1.51607        0.10583
C          3.37891       -1.35296       -1.27225
C          4.61109       -1.62030       -1.84079
C          4.23453       -1.96450        0.90436
C          5.47976       -2.23166        0.31155
C          5.67277       -2.06334       -1.04564
C          1.72876       -1.43860        2.16827
C          2.87163       -1.90019        2.92543
C          4.05202       -2.14747        2.32917
C          0.52898       -1.18986        2.79474
C         -0.60907       -0.73628        2.08338
H         -1.92999       -0.64321        3.77868
H         -4.35051       -0.05850        3.61623
H         -6.69050        0.39923        3.47408
H         -8.67177        0.86101        2.13800
H         -3.79488        0.76872       -1.23457
H         -1.49923        0.06994       -1.13256
H          0.81744       -0.63596       -1.03224
H          2.57661       -1.01111       -1.91694
H          4.75081       -1.48447       -2.90890
H          6.29617       -2.57557        0.94154
H          6.64014       -2.27313       -1.49146
H          2.74980       -2.04226        3.99583
H          4.90215       -2.49352        2.91116
H          0.44647       -1.34407        3.86831
