37
syn_S_O_p-CNbenz_2-Cl.log	Energy: -1173730.9886200
C         -3.59914        1.11196       -0.00305
C         -4.63223        0.17032       -0.00194
C         -6.00162        0.57537       -0.00251
C         -6.93799       -0.40624       -0.00135
O         -8.29646       -0.21784       -0.00166
C         -6.64176       -1.80448        0.00039
C         -7.93073       -2.46439        0.00113
C         -8.83565       -1.46782       -0.00015
Cl       -10.54121       -1.52082       -0.00018
C         -5.33674       -2.21513        0.00097
C         -4.29963       -1.23580       -0.00018
C         -2.95171       -1.60810        0.00036
C         -1.92348       -0.66560       -0.00076
C         -0.55179       -1.05446       -0.00021
C          0.43715       -0.11217       -0.00134
C          1.88470       -0.30231       -0.00103
C          2.59821       -1.49647        0.00050
C          3.99328       -1.46186        0.00053
C          4.73405       -2.69223        0.00212
N          5.33106       -3.68603        0.00341
C          2.58347        0.91767       -0.00252
C          3.97609        0.95766       -0.00251
C          4.67908       -0.23668       -0.00097
C          0.09024        1.28290       -0.00309
S          1.52087        2.31883       -0.00432
C         -1.20541        1.70204       -0.00367
C         -2.25635        0.73481       -0.00252
H         -3.85116        2.16985       -0.00438
H         -6.27226        1.62554       -0.00383
H         -8.14160       -3.52257        0.00242
H         -5.07557       -3.26923        0.00229
H         -2.69835       -2.66591        0.00168
H         -0.30975       -2.11425        0.00111
H          2.08309       -2.45162        0.00168
H          4.50644        1.90405       -0.00367
H          5.76360       -0.23185       -0.00093
H         -1.45932        2.75808       -0.00500
