40
syn_O_O_2-OMe_tetClbenz.log	Energy: -1850203.5184378
C         -3.42495        1.19428        0.14458
C         -2.11815        0.70615        0.09988
C         -0.99251        1.56696        0.29132
C          0.23909        1.00703        0.23169
O          1.42536        1.68795        0.39346
C          0.47637       -0.38255       -0.00991
C          1.92634       -0.51713        0.01400
C          2.83053       -1.56141       -0.14369
Cl         2.24135       -3.16025       -0.45125
C          4.20328       -1.30460       -0.05167
Cl         5.33629       -2.59734       -0.24663
C          2.41333        0.77025        0.26165
C          3.76401        1.06028        0.35911
Cl         4.26688        2.68109        0.66791
C          4.66544        0.00168        0.19896
Cl         6.36032        0.31378        0.31209
C         -0.58316       -1.22543       -0.19606
C         -1.90946       -0.69962       -0.14522
C         -3.01896       -1.52839       -0.32983
C         -4.32819       -1.04337       -0.28557
C         -5.44783       -1.90937       -0.47710
C         -6.71436       -1.39369       -0.42614
C         -8.05223       -1.91789       -0.56382
C         -8.87353       -0.85492       -0.40022
O        -10.19564       -0.80877       -0.43504
C        -10.82646        0.45370       -0.23031
C         -6.87820        0.00764       -0.18053
O         -8.21707        0.31931       -0.16839
C         -5.86437        0.88456        0.00955
C         -4.53286        0.36488       -0.04009
H         -3.58526        2.25399        0.32917
H         -1.12709        2.62692        0.47702
H         -0.43873       -2.28391       -0.38112
H         -2.85712       -2.58804       -0.51430
H         -5.27595       -2.96585       -0.66061
H         -8.36012       -2.93326       -0.75582
H        -11.89494        0.25385       -0.29969
H        -10.52822        1.16935       -1.00126
H        -10.58385        0.85652        0.75677
H         -6.04336        1.93869        0.19243
