58
syn_C_NPh_3-OMe_p-OMebenz.log	Energy: -902358.5398533
C         -3.20299        1.53166       -0.08250
C         -1.89679        1.05431       -0.09528
C         -0.78509        1.90936        0.18817
C          0.47159        1.38142        0.16490
N          1.70096        1.99795        0.38729
C          1.89031        3.35930        0.71603
C          1.23862        3.90836        1.82166
C          1.41978        5.25085        2.13569
C          2.26597        6.04496        1.36599
C          2.92348        5.49248        0.27003
C          2.72964        4.15648       -0.06407
C          0.71344       -0.00596       -0.15543
C          2.15633       -0.19448       -0.11415
C          2.96491       -1.30139       -0.31730
C          4.34811       -1.16314       -0.18391
O          5.07484       -2.29501       -0.40404
C          6.47344       -2.21849       -0.27043
C          2.72128        1.05166        0.21803
C          4.09178        1.19354        0.36540
C          4.90232        0.07584        0.15872
C         -0.32646       -0.84048       -0.42903
C         -1.66696       -0.34195       -0.40429
C         -2.75189       -1.16701       -0.67610
C         -4.07113       -0.68673       -0.66201
C         -5.17359       -1.52337       -0.93790
C         -6.46675       -1.03688       -0.92159
C         -7.60486       -1.88691       -1.20327
O         -7.28057       -3.17345       -1.47650
C         -8.32906       -4.06970       -1.76348
C         -8.87348       -1.38536       -1.18213
C         -6.70756        0.35303       -0.61786
C         -8.06051        0.83669       -0.60717
C         -9.09062       -0.00314       -0.87861
C         -5.62994        1.17834       -0.34630
C         -4.30237        0.70132       -0.35761
H         -3.38149        2.57992        0.14708
H         -0.96052        2.95740        0.40915
H          0.59957        3.27624        2.43014
H          0.90765        5.67363        2.99473
H          2.41185        7.09053        1.61896
H          3.57957        6.10720       -0.33877
H          3.21724        3.72465       -0.93257
H          2.55387       -2.27264       -0.57285
H          6.85219       -3.21899       -0.48386
H          6.76869       -1.93158        0.74781
H          6.91106       -1.50826       -0.98487
H          4.53491        2.14448        0.64123
H          5.97412        0.18852        0.27285
H         -0.15629       -1.88579       -0.67389
H         -2.57641       -2.21545       -0.90780
H         -4.99956       -2.56947       -1.16744
H         -9.01986       -4.15952       -0.91546
H         -7.85852       -5.03528       -1.95200
H         -8.88884       -3.75622       -2.65386
H         -9.73126       -2.01326       -1.39154
H         -8.23765        1.88361       -0.37832
H        -10.11197        0.36610       -0.86970
H         -5.80868        2.22664       -0.11719
