61
syn_NPh_NPh_2-Cl_p-CF3benz.log	Energy: -1389603.0358451
C         -3.83274        0.26607        0.50260
C         -2.47200        0.04635        0.29339
C         -1.51162        1.09047        0.46601
C         -0.19585        0.80808        0.24843
N          0.92075        1.64493        0.33575
C          0.89463        3.01045        0.71165
C          0.35220        3.38214        1.94204
C          0.31970        4.72433        2.30431
C          0.84470        5.69400        1.45370
C          1.39352        5.31830        0.23050
C          1.40960        3.98016       -0.14873
C          0.25260       -0.49665       -0.16369
C          1.69548       -0.40373       -0.31923
C          2.67010       -1.32414       -0.68230
C          3.99745       -0.91233       -0.72075
C          5.08992       -1.86313       -1.11226
F          4.62564       -3.09467       -1.38193
F          5.75063       -1.43844       -2.20712
F          6.01289       -1.98935       -0.13900
C          2.05718        0.92056       -0.00385
C          3.38775        1.33629       -0.02886
C          4.34779        0.40426       -0.39245
C         -0.64524       -1.50848       -0.33482
C         -2.03452       -1.27050       -0.10780
C         -2.98169       -2.28034       -0.26891
C         -4.34822       -2.06291       -0.05727
C         -5.30024       -3.10640       -0.22221
C         -6.63131       -2.85360       -0.01061
C         -7.82300       -3.66272       -0.08379
C         -8.85543       -2.84862        0.24230
Cl       -10.52754       -3.24436        0.28962
C         -7.04886       -1.53199        0.37488
N         -8.43259       -1.55567        0.52856
C         -9.23268       -0.43619        0.88224
C         -9.26278        0.67353        0.03897
C        -10.02012        1.78517        0.39173
C        -10.75815        1.78226        1.57262
C        -10.72908        0.66867        2.40799
C         -9.95771       -0.43872        2.07199
C         -6.17172       -0.49928        0.55651
C         -4.78736       -0.74528        0.33938
H         -4.16578        1.25724        0.80300
H         -1.84259        2.08173        0.75956
H         -0.03513        2.61590        2.60625
H         -0.10557        5.01108        3.26120
H          0.82556        6.74003        1.74328
H          1.79888        6.07031       -0.43947
H          1.81219        3.67937       -1.11110
H          2.40404       -2.34616       -0.92853
H          3.66656        2.35112        0.23242
H          5.39212        0.69899       -0.42103
H         -0.32191       -2.49817       -0.64727
H         -2.64854       -3.27149       -0.56988
H         -4.95921       -4.09635       -0.51290
H         -7.89765       -4.70532       -0.35276
H         -8.69407        0.65441       -0.88542
H        -10.04193        2.65032       -0.26363
H        -11.35515        2.64797        1.84229
H        -11.29997        0.66445        3.33128
H         -9.91137       -1.30455        2.72440
H         -6.50771        0.48761        0.85946
