51
syn_C_S_p-CF3benz_m-CF3benz.log	Energy: -1348135.0116667
C         -3.44857        0.90553       -1.13089
C         -2.11497        0.62830       -0.83934
C         -1.04532        1.29731       -1.51095
C          0.24255        0.99307       -1.19145
S          1.68930        1.70795       -1.90492
C          0.56461        0.01004       -0.19021
C          2.00756       -0.13638       -0.02893
C          2.70505       -0.98398        0.83430
C          4.08989       -0.97630        0.83702
C          2.72615        0.71282       -0.88379
C          4.11683        0.73008       -0.88898
C          4.78909       -0.12151       -0.02210
C          6.29289       -0.11404        0.03739
F          6.79132       -1.36228        0.00749
F          6.83996        0.56344       -0.98381
F          6.73431        0.45242        1.17455
C         -0.44066       -0.64221        0.46467
C         -1.80659       -0.35858        0.16632
C         -2.84843       -1.01115        0.82298
C         -4.18873       -0.73263        0.53105
C         -5.25282       -1.39244        1.19659
C         -6.57365       -1.12454        0.91639
C         -7.68931       -1.79724        1.59657
C         -7.48886       -2.77035        2.58920
C         -8.55685       -3.38788        3.20993
C         -8.33254       -4.40580        4.29351
F         -7.04617       -4.78002        4.38892
F         -8.69863       -3.92954        5.49750
F         -9.05992       -5.51694        4.08072
C         -9.01623       -1.46226        1.24793
C        -10.08997       -2.10212        1.89268
C         -9.87268       -3.05493        2.86317
C         -6.87573       -0.13540       -0.09291
C         -8.25699        0.16001       -0.40180
C         -9.26764       -0.46524        0.22990
C         -5.85621        0.51636       -0.75063
C         -4.49491        0.24973       -0.47068
H         -3.68424        1.64908       -1.88877
H         -1.28082        2.04018       -2.26747
H          2.16524       -1.64961        1.50085
H          4.63742       -1.63542        1.50219
H          4.66754        1.38685       -1.55250
H         -0.21694       -1.38732        1.22384
H         -2.61445       -1.75504        1.58136
H         -4.98257       -2.12798        1.94744
H         -6.48720       -3.05705        2.88367
H        -11.10500       -1.83495        1.61212
H        -10.70664       -3.54664        3.35302
H         -8.45939        0.90714       -1.16443
H        -10.30061       -0.23239       -0.01333
H         -6.09924        1.25852       -1.50770
