50
syn_C_NPh_tetClbenz_diCl.log	Energy: -2488992.4137676
C         -3.37499       -0.41642        1.68722
C         -4.37279       -0.50412        0.71110
C         -5.74138       -0.28014        1.03152
C         -6.66601       -0.38264        0.03064
N         -8.04486       -0.20687        0.07661
C         -8.78895        0.10817        1.24738
C         -8.81971       -0.80479        2.29983
C         -9.51983       -0.49069        3.45970
C        -10.19908        0.72088        3.55950
C        -10.16930        1.62567        2.50145
C         -9.45489        1.32761        1.34613
C         -6.30335       -0.69342       -1.32527
C         -7.53245       -0.69453       -2.07414
Cl        -7.68428       -1.02197       -3.75423
C         -8.53796       -0.40306       -1.20762
Cl       -10.21203       -0.30590       -1.53426
C         -4.99373       -0.91145       -1.65766
C         -3.99487       -0.82514       -0.64880
C         -2.64536       -1.04480       -0.94396
C         -1.65640       -0.96648        0.03725
C         -0.29043       -1.21821       -0.26521
C          0.70062       -1.17445        0.68943
C          2.12722       -1.45885        0.41908
C          2.61230       -2.21005       -0.67778
Cl         1.56065       -3.18641       -1.66715
C          3.97699       -2.28879       -0.96191
Cl         4.54442       -3.16765       -2.34018
C          3.08948       -0.96404        1.34047
C          4.46238       -1.04692        1.03769
Cl         5.63159       -0.36165        2.12907
C          4.91104       -1.66557       -0.12067
Cl         6.59544       -1.71611       -0.50283
C          0.32415       -0.72729        2.01530
C          1.35943       -0.40451        2.96363
C          2.65747       -0.44290        2.62273
C         -0.99312       -0.50283        2.33725
C         -2.03161       -0.63748        1.38291
H         -3.65374       -0.16529        2.70807
H         -6.02930       -0.03414        2.04871
H         -8.29821       -1.75151        2.19945
H         -9.54358       -1.19928        4.28163
H        -10.75160        0.96038        4.46269
H        -10.69491        2.57221        2.57813
H         -9.40781        2.03191        0.52189
H         -4.71066       -1.14613       -2.67955
H         -2.36268       -1.29221       -1.96462
H         -0.05856       -1.43145       -1.29817
H          1.06322       -0.06443        3.95194
H          3.41411       -0.13311        3.33102
H         -1.24303       -0.16629        3.34081
