41
syn_S_NPh_3-Cl_3-F.log	Energy: -1214213.8863419
C         -0.92688        1.12575        0.97546
C         -1.92507        0.20854        0.62676
C         -3.30295        0.51953        0.79612
C         -4.23503       -0.41988        0.44428
N         -5.62363       -0.37926        0.48575
C         -6.42857        0.68622        0.94734
C         -6.15297        1.29539        2.17294
C         -6.95277        2.34164        2.61876
C         -8.04146        2.76869        1.86305
C         -8.32310        2.14718        0.64958
C         -7.51483        1.11603        0.18380
C         -3.85175       -1.68914       -0.11793
C         -5.08654       -2.36411       -0.40509
F         -5.17153       -3.58839       -0.92894
C         -6.11957       -1.57097       -0.04637
C         -2.53233       -2.01202       -0.28934
C         -1.53290       -1.07378        0.08577
C         -0.17156       -1.35793       -0.06635
C          0.82007       -0.44201        0.28499
C          2.20317       -0.74155        0.12622
C          3.14942        0.18049        0.47971
C          4.59549        0.09720        0.40790
Cl         5.40529       -1.31411       -0.19175
C          5.23559        1.19745        0.84222
C          2.75070        1.45508        1.01252
S          4.15056        2.45747        1.38685
C          1.43790        1.78225        1.18092
C          0.42906        0.83933        0.82092
H         -1.21928        2.09212        1.38031
H         -3.58854        1.49025        1.18777
H         -5.32742        0.93405        2.77738
H         -6.73268        2.81276        3.57188
H         -8.66818        3.58027        2.21884
H         -9.16765        2.47576        0.05163
H         -7.71108        0.65163       -0.77791
H         -7.18222       -1.75634       -0.08827
H         -2.24354       -2.96843       -0.71478
H          0.12187       -2.32330       -0.47265
H          2.49878       -1.70607       -0.27706
H          6.30517        1.35252        0.87777
H          1.14225        2.74682        1.58376
