46
syn_C_C_2-OMe_tetClbenz.log	Energy: -1852961.4517018
C         -2.04476       -0.62963        2.51956
C         -3.14969       -0.08563        1.87064
C         -4.42052        0.04337        2.48779
C         -5.49726        0.58427        1.82939
C         -6.80773        0.52712        2.42572
C         -7.90552        0.88132        1.73889
C         -5.36016        1.10735        0.48326
C         -6.53987        1.73576       -0.15231
C         -6.49679        2.58455       -1.28325
Cl        -5.00519        3.27362       -1.86537
C         -7.66311        2.99709       -1.93105
Cl        -7.58505        3.99075       -3.34536
C         -7.81466        1.49172        0.42618
C         -8.98187        1.90884       -0.24176
Cl       -10.54297        1.52826        0.42588
C         -8.91880        2.62071       -1.43180
Cl       -10.36024        3.08308       -2.26468
C         -4.15936        0.90193       -0.15449
C         -3.03393        0.32085        0.49589
C         -1.82118        0.15118       -0.16709
C         -0.70207       -0.39567        0.47802
C          0.53510       -0.56642       -0.18208
C          1.63610       -1.10465        0.45909
C          2.89535       -1.27919       -0.21187
C          3.95969       -1.81296        0.45168
O          5.19025       -2.02592       -0.06859
C          5.40067       -1.66578       -1.41600
C          1.51579       -1.50226        1.84300
C          2.67284       -2.05997        2.49214
C          3.84279       -2.20987        1.82978
C          0.31364       -1.34177        2.50327
C         -0.81856       -0.79345        1.86006
H         -2.13396       -0.93875        3.55860
H         -4.55470       -0.34273        3.49565
H         -6.89722        0.12686        3.43168
H         -8.88509        0.76815        2.18371
H         -4.02991        1.16349       -1.19429
H         -1.73483        0.45823       -1.20692
H          0.61672       -0.26377       -1.22363
H          2.96409       -0.97424       -1.25013
H          6.43940       -1.91274       -1.63691
H          5.23912       -0.59127       -1.57010
H          4.73976       -2.23023       -2.08610
H          2.58883       -2.36094        3.53281
H          4.72187       -2.62888        2.30798
H          0.23069       -1.64335        3.54517
