47
syn_S_NPh_tetFbenz_diCl.log	Energy: -1785740.9555317
C         -4.32342       -0.85007       -1.06063
C         -5.23412       -0.98856       -0.00460
C         -6.62948       -1.11605       -0.24561
C         -7.46253       -1.25147        0.83041
N         -8.84643       -1.38200        0.86832
C         -9.69554       -1.40922       -0.27275
C        -10.60861       -0.37981       -0.48928
C        -11.42450       -0.41415       -1.61487
C        -11.31268       -1.45846       -2.52920
C        -10.38821       -2.47738       -2.31379
C         -9.58250       -2.46065       -1.18028
C         -6.97902       -1.25639        2.18294
C         -8.14158       -1.39743        3.01926
Cl        -8.14045       -1.47647        4.73601
C         -9.22549       -1.46782        2.20223
Cl       -10.86332       -1.67409        2.64283
C         -5.63899       -1.13399        2.43785
C         -4.73364       -0.99943        1.35087
C         -3.35525       -0.87171        1.56388
C         -2.45532       -0.73398        0.50982
C         -1.05349       -0.60276        0.74074
C         -0.18979       -0.46796       -0.30987
C          1.26147       -0.32023       -0.29988
C          2.13573       -0.27849        0.78121
F          1.68355       -0.38049        2.03483
C          3.50087       -0.12930        0.58224
F          4.33125       -0.08995        1.62121
C          1.79168       -0.20823       -1.59618
C          3.15323       -0.05943       -1.80075
F          3.65084        0.04625       -3.03393
C          4.01100       -0.01951       -0.70979
F          5.31999        0.12342       -0.88981
C         -0.70075       -0.45949       -1.65670
S          0.57786       -0.27600       -2.86419
C         -2.02945       -0.58154       -1.92240
C         -2.95446       -0.72308       -0.84145
H         -4.69935       -0.84089       -2.08121
H         -7.01113       -1.10284       -1.26166
H        -10.67231        0.43798        0.22122
H        -12.14175        0.38311       -1.78235
H        -11.94604       -1.47795       -3.41059
H        -10.30062       -3.29419       -3.02330
H         -8.86804       -3.25520       -0.98901
H         -5.26437       -1.13505        3.45728
H         -2.97803       -0.87943        2.58398
H         -0.68600       -0.61116        1.76069
H         -2.40544       -0.57332       -2.94141
