59
syn_NPh_NPh_3-CF3_3-OMe.log	Energy: -1076663.3706584
C         -0.53865        0.62279        0.40534
C         -1.72718        0.07385        0.89469
C         -2.96879        0.28250        0.22810
C         -4.09915       -0.27823        0.75717
N         -5.41940       -0.24202        0.31885
C         -5.92262        0.44741       -0.80494
C         -5.55929        1.77526       -1.04018
C         -6.06565        2.44454       -2.14861
C         -6.95231        1.80853       -3.01348
C         -7.32563        0.49027       -2.76704
C         -6.80617       -0.19495       -1.67439
C         -4.05970       -1.09738        1.94089
C         -5.41693       -1.55043        2.15943
O         -5.84758       -2.32166        3.19525
C         -5.49216       -3.68945        3.06609
C         -6.18839       -1.03060        1.17440
C         -2.88058       -1.29822        2.60618
C         -1.68259       -0.71603        2.10482
C         -0.45649       -0.89596        2.74950
C          0.73084       -0.34413        2.26180
C          1.96901       -0.53110        2.93816
C          3.10912        0.02259        2.42203
C          4.49010        0.04851        2.85043
C          5.04838       -0.60887        4.05275
F          4.47163       -0.16112        5.18586
F          4.85310       -1.94227        4.03573
F          6.37243       -0.39699        4.16445
C          5.18513        0.77460        1.93942
C          3.05623        0.78222        1.20245
N          4.35473        1.22385        0.93479
C          4.77246        2.00861       -0.16706
C          4.39990        1.65049       -1.46318
C          4.82123        2.42471       -2.53839
C          5.62903        3.53976       -2.33014
C          6.00862        3.88496       -1.03617
C          5.57349        3.12988        0.04766
C          1.88877        1.00561        0.52868
C          0.68875        0.43833        1.04715
H         -0.57041        1.21520       -0.50671
H         -2.99345        0.87204       -0.68267
H         -4.89939        2.28121       -0.34319
H         -5.77793        3.47651       -2.32551
H         -7.35148        2.33769       -3.87304
H         -8.01372       -0.01599       -3.43726
H         -7.06950       -1.23356       -1.49851
H         -5.84941       -4.19094        3.96738
H         -4.40579       -3.81756        2.98332
H         -5.96852       -4.13494        2.18325
H         -7.25478       -1.11803        1.02454
H         -2.84712       -1.89523        3.51345
H         -0.42439       -1.48680        3.66246
H          1.99544       -1.10415        3.86013
H          6.24235        0.99690        1.90671
H          3.79794        0.76161       -1.62160
H          4.52878        2.14407       -3.54553
H          5.96158        4.13696       -3.17327
H          6.63413        4.75555       -0.86483
H          5.83832        3.41347        1.06181
H          1.85315        1.60510       -0.37534
