47
syn_S_NPh_2-F_diCF3.log	Energy: -1348704.0281543
C          0.39751       -0.87794        0.13257
C          1.61115       -0.17679        0.14205
C          2.85713       -0.84922        0.04910
C          3.99917       -0.09490        0.06001
N          5.32200       -0.51152       -0.01868
C          5.71174       -1.88289       -0.09826
C          5.44575       -2.59534       -1.26483
C          5.78734       -3.94101       -1.33660
C          6.39819       -4.56521       -0.25146
C          6.65994       -3.84520        0.91079
C          6.30807       -2.50209        0.99592
C          3.99577        1.33359        0.17506
C          5.38502        1.74058        0.16956
C          5.89002        3.14478        0.26724
F          4.89588        3.98798        0.60344
F          6.84370        3.27761        1.20378
F          6.40283        3.59103       -0.89069
C          6.13290        0.60418        0.03725
C          7.62810        0.44971       -0.03329
F          8.12728        0.01589        1.13707
F          7.97486       -0.44173       -0.97304
F          8.22842        1.60116       -0.33012
C          2.79609        1.99923        0.26592
C          1.58300        1.26321        0.24752
C          0.34310        1.91192        0.33488
C         -0.86037        1.21189        0.32383
C         -2.11798        1.88042        0.41280
C         -3.28681        1.17101        0.40012
C         -4.64858        1.65884        0.47920
C         -5.53050        0.64997        0.43581
F         -6.84959        0.75139        0.48589
C         -3.23739       -0.26901        0.29563
S         -4.85661       -0.97046        0.29829
C         -2.06267       -0.95022        0.20858
C         -0.82982       -0.22693        0.21986
H          0.41779       -1.96263        0.05433
H          2.89165       -1.93126       -0.02835
H          4.98061       -2.08849       -2.10438
H          5.58408       -4.49982       -2.24463
H          6.67007       -5.61438       -0.31218
H          7.13268       -4.33063        1.75861
H          6.49692       -1.93088        1.89811
H          2.75782        3.07830        0.35181
H          0.32368        2.99652        0.41433
H         -2.13374        2.96424        0.49089
H         -4.92924        2.70057        0.56275
H         -2.03885       -2.03339        0.13055
