40
syn_C_O_diF_p-CNbenz.log	Energy: -808556.5915850
C         -3.38817        1.13924        0.54964
C         -2.09618        0.65947        0.38638
C         -0.95518        1.44924        0.75311
C          0.26883        0.90742        0.56185
O          1.46595        1.51836        0.85500
C          0.48593       -0.40210        0.01719
C          1.93313       -0.55907       -0.00553
C          2.80190       -1.56446       -0.40243
C          4.17699       -1.34202       -0.26711
C          5.10256       -2.36367       -0.66903
N          5.84907       -3.18910       -0.99394
C          2.44798        0.63707        0.51357
C          3.80456        0.87800        0.65607
C          4.66855       -0.13348        0.25645
C         -0.57520       -1.17536       -0.34042
C         -1.90357       -0.66723       -0.16638
C         -3.01378       -1.42402       -0.51828
C         -4.32357       -0.94181       -0.35446
C         -5.44990       -1.70958       -0.71137
C         -6.73049       -1.21454       -0.54116
C         -7.88947       -1.97535       -0.89614
F         -7.71448       -3.19994       -1.40684
C         -9.13884       -1.47629       -0.72301
F        -10.20973       -2.20257       -1.06069
C         -6.93354        0.10490        0.00839
C         -8.27564        0.58874        0.17226
C         -9.34188       -0.17519       -0.18107
C         -5.82753        0.86099        0.35963
C         -4.51494        0.37623        0.19471
H         -3.53657        2.13366        0.96394
H         -1.08169        2.44327        1.16781
H          2.43644       -2.50184       -0.80793
H          4.17009        1.81407        1.06120
H          5.74043        0.00468        0.34719
H         -0.43782       -2.16999       -0.75514
H         -2.86823       -2.41887       -0.93280
H         -5.30835       -2.70270       -1.12533
H         -8.42515        1.58130        0.58586
H        -10.36258        0.17245       -0.06493
H         -5.97324        1.85576        0.77421
