60
syn_NPh_NPh_diCN_benz.log	Energy: -1005492.1344033
C         -3.88876        0.61843        0.19731
C         -2.53242        0.39406       -0.02767
C         -1.54579        1.36034        0.33852
C         -0.23348        1.07868        0.09533
N          0.90007        1.84847        0.34227
C          0.90565        3.13136        0.94132
C          0.34480        3.31151        2.20610
C          0.34252        4.57501        2.78704
C          0.91665        5.65486        2.12115
C          1.48500        5.46949        0.86363
C          1.47128        4.21347        0.26645
C          0.18590       -0.15154       -0.53249
C          1.63412       -0.08109       -0.64946
C          2.59148       -0.95669       -1.15189
C          3.93197       -0.59028       -1.10149
C          2.02815        1.15535       -0.10515
C          3.36722        1.52766       -0.03925
C          4.30858        0.63748       -0.54724
C         -0.73655       -1.08756       -0.89033
C         -2.12460       -0.84786       -0.64674
C         -3.09389       -1.78140       -0.99794
C         -4.46014       -1.55894       -0.77248
C         -5.43389       -2.51975       -1.14413
C         -6.75849       -2.25712       -0.90201
C         -7.97439       -2.99144       -1.15998
C         -8.07529       -4.27016       -1.76329
N         -8.11718       -5.31706       -2.26144
C         -9.01413       -2.21661       -0.70279
C        -10.40209       -2.53031       -0.72101
N        -11.53087       -2.79154       -0.74596
C         -7.15250       -1.02950       -0.27886
N         -8.54143       -1.03440       -0.16961
C         -9.33276       -0.00165        0.40865
C         -9.08960        0.38679        1.72497
C         -9.85406        1.40149        2.28924
C        -10.86586        2.00970        1.55022
C        -11.10782        1.60864        0.23955
C        -10.33461        0.60912       -0.34132
C         -6.24832       -0.06837        0.08590
C         -4.87045       -0.31834       -0.15403
H         -4.19828        1.55241        0.66088
H         -1.85424        2.29567        0.79453
H         -0.07968        2.45851        2.72630
H         -0.09729        4.71218        3.77016
H          0.92119        6.63817        2.58100
H          1.92957        6.30849        0.33717
H          1.89033        4.06354       -0.72374
H          2.29468       -1.91276       -1.57352
H          4.69134       -1.26101       -1.49020
H          3.66815        2.47400        0.39739
H          5.36029        0.90509       -0.50810
H         -0.43672       -2.01767       -1.36599
H         -2.78538       -2.71439       -1.46436
H         -5.12810       -3.44802       -1.61845
H         -8.31317       -0.11182        2.29655
H         -9.66729        1.70671        3.31394
H        -11.46719        2.79503        1.99712
H        -11.89530        2.07988       -0.33955
H        -10.50422        0.30357       -1.36872
H         -6.56086        0.86550        0.54188
