53
syn_S_NPh_2-CF3_p-CF3benz.log	Energy: -1382847.0253403
C         -3.39099        1.51726       -0.24223
C         -2.10429        0.97932       -0.18412
C         -0.95263        1.81537       -0.07140
C          0.27648        1.22638       -0.01570
N          1.53880        1.81313        0.08102
C          1.79319        3.20572        0.15835
C          1.23717        3.95651        1.19393
C          1.48108        5.32401        1.26110
C          2.29342        5.93924        0.31191
C          2.85416        5.18423       -0.71482
C          2.59720        3.82002       -0.80148
C          0.44833       -0.20210       -0.08204
C          1.88038       -0.44519       -0.01958
C          2.64608       -1.60428       -0.03088
C          4.02815       -1.49169        0.06172
C          4.90488       -2.70969        0.04444
F          4.19635       -3.84910       -0.02066
F          5.74479       -2.70195       -1.00850
F          5.67709       -2.78133        1.14536
C          2.50455        0.81300        0.07874
C          3.88963        0.93218        0.18296
C          4.63842       -0.23447        0.17113
C         -0.63711       -1.02009       -0.18996
C         -1.94711       -0.45538       -0.24091
C         -3.08087       -1.25985       -0.34946
C         -4.36970       -0.71990       -0.40668
C         -5.52081       -1.54620       -0.51807
C         -6.77173       -0.98725       -0.57311
C         -8.05513       -1.64214       -0.68600
C         -9.08262       -0.77265       -0.71303
C        -10.53017       -1.13137       -0.82376
F        -10.69146       -2.46020       -0.89380
F        -11.23129       -0.68934        0.23256
F        -11.09051       -0.59299       -1.91870
C         -6.91531        0.44234       -0.51739
S         -8.60680        0.91603       -0.60511
C         -5.83690        1.27240       -0.41048
C         -4.52810        0.71134       -0.35189
H         -3.51289        2.59726       -0.20138
H         -1.07154        2.89364       -0.03713
H          0.62303        3.46222        1.94023
H          1.04512        5.90753        2.06607
H          2.48865        7.00532        0.37207
H          3.48356        5.65985       -1.46057
H          3.00929        3.22627       -1.61165
H          2.17763       -2.57933       -0.10692
H          4.36691        1.90140        0.27616
H          5.71923       -0.17420        0.25123
H         -0.52323       -2.09964       -0.24301
H         -2.95956       -2.34007       -0.39197
H         -5.39772       -2.62535       -0.55939
H         -8.18010       -2.71636       -0.74318
H         -5.95300        2.35153       -0.36932
