55
syn_S_NPh_p-OMebenz_2-OMe.log	Energy: -1103649.7382139
C         -3.58376        1.15067        0.14487
C         -4.60628        0.19876        0.07706
C         -5.97912        0.58137        0.10589
C         -6.92732       -0.39660        0.03019
N         -8.31799       -0.29503        0.05407
C         -9.06855        0.90793        0.07560
C         -8.81458        1.89450       -0.87722
C         -9.52967        3.08682       -0.84414
C        -10.51134        3.28913        0.12198
C        -10.77014        2.29577        1.06288
C        -10.04472        1.10991        1.05039
C         -6.60092       -1.79800       -0.05947
C         -7.84905       -2.51980       -0.09145
C         -8.83469       -1.58182       -0.02074
O        -10.16524       -1.68470       -0.02347
C        -10.66670       -3.00428       -0.14129
C         -5.28623       -2.18090       -0.08575
C         -4.25675       -1.19812       -0.02285
C         -2.90390       -1.55212       -0.05003
C         -1.88634       -0.60013        0.01726
C         -0.50918       -0.96895       -0.01005
C          0.46986       -0.01870        0.05789
C          1.91991       -0.19648        0.04512
C          2.63799       -1.38296       -0.03892
C          4.03235       -1.35165       -0.03624
O          4.64574       -2.56216       -0.12159
C          6.05387       -2.59349       -0.12226
C          2.60548        1.02749        0.13226
C          3.99142        1.06278        0.13493
C          4.70837       -0.12900        0.05052
C          0.10648        1.36965        0.15751
S          1.52303        2.42181        0.23196
C         -1.19542        1.76917        0.18726
C         -2.23605        0.79267        0.11795
H         -3.84909        2.20305        0.22158
H         -6.24522        1.63028        0.19217
H         -8.06182        1.71884       -1.63923
H         -9.32606        3.85421       -1.58474
H        -11.07325        4.21782        0.14160
H        -11.53299        2.44838        1.82024
H        -10.22963        0.33752        1.78861
H         -7.97611       -3.58929       -0.15781
H        -11.75277       -2.91669       -0.14130
H        -10.34124       -3.61914        0.70583
H        -10.32831       -3.46347       -1.07712
H         -5.01235       -3.23068       -0.14886
H         -2.63728       -2.60441       -0.12512
H         -0.25231       -2.02280       -0.08573
H          2.13956       -2.34461       -0.10710
H          6.33132       -3.64574       -0.19608
H          6.46815       -2.17572        0.80474
H          6.47016       -2.04992       -0.98059
H          4.52456        2.00599        0.20206
H          5.79122       -0.08915        0.05360
H         -1.46275        2.81947        0.26322
