45
syn_C_C_3-Cl_p-CF3benz.log	Energy: -1127405.8071972
C         -1.87643       -1.55527        1.72851
C         -2.95250       -0.72560        1.42510
C         -4.24878       -0.92792        1.96818
C         -5.30302       -0.10232        1.66175
C         -6.61177       -0.33701        2.23241
C         -7.65726        0.45931        1.94546
C         -5.11543        1.01679        0.75999
C         -6.27062        1.87673        0.45951
C         -6.18131        2.98246       -0.40093
C         -7.28356        3.77167       -0.66692
C         -7.17386        4.96930       -1.56921
F         -5.98440        5.04008       -2.18833
F         -8.12299        4.95329       -2.52233
F         -7.33541        6.11587       -0.88374
C         -7.52023        1.59026        1.05116
C         -8.62977        2.40583        0.76818
C         -8.52248        3.48621       -0.08004
C         -3.86772        1.22550        0.22610
C         -2.75987        0.38523        0.52723
C         -1.49942        0.60775       -0.02090
C         -0.41118       -0.22416        0.28035
C          0.86846       -0.00229       -0.27329
C          1.93942       -0.82356        0.02517
C          3.26525       -0.63993       -0.51399
Cl         3.56031        0.69077       -1.61178
C          4.29366       -1.46706       -0.19781
C          1.74829       -1.94001        0.92797
C          2.86182       -2.79214        1.23754
C          4.08459       -2.56410        0.69624
C          0.49719       -2.16359        1.47413
C         -0.60521       -1.33474        1.17894
H         -2.02310       -2.39311        2.40632
H         -4.40497       -1.76364        2.64661
H         -6.72857       -1.18213        2.90544
H         -8.63385        0.26943        2.38210
H         -5.24187        3.23546       -0.87594
H         -9.58490        2.17137        1.22993
H         -9.38453        4.10888       -0.29558
H         -3.68443        2.05156       -0.45344
H         -1.35196        1.44534       -0.69879
H          1.00320        0.83638       -0.94838
H          5.27632       -1.29682       -0.62342
H          2.70070       -3.62464        1.91654
H          4.92343       -3.21062        0.93302
H          0.35668       -3.00271        2.15160
