41
syn_S_NPh_diCl_diCl.log	Energy: -2017130.1205231
C          0.66997        0.96373        0.41253
C         -0.53803        0.25795        0.44960
C         -1.78959        0.93388        0.41388
C         -2.93151        0.18365        0.44921
N         -4.26128        0.59184        0.43500
C         -4.69970        1.94246        0.35268
C         -4.40623        2.68430       -0.79000
C         -4.80533        4.01434       -0.86530
C         -5.50836        4.59363        0.18793
C         -5.80363        3.84470        1.32412
C         -5.39062        2.51997        1.41545
C         -2.90866       -1.25075        0.53365
C         -4.28579       -1.66802        0.56608
Cl        -4.84073       -3.29223        0.65107
C         -5.05281       -0.54780        0.50524
Cl        -6.75783       -0.44166        0.47219
C         -1.71618       -1.92196        0.57027
C         -0.50080       -1.18510        0.52606
C          0.74078       -1.82930        0.55820
C          1.94233       -1.12241        0.51982
C          3.20084       -1.78903        0.55251
C          4.36078       -1.06651        0.51370
C          5.73219       -1.53741        0.53559
Cl         6.12848       -3.21293        0.62042
C          6.63841       -0.53928        0.48312
Cl         8.34456       -0.69668        0.48838
C          4.31292        0.36858        0.44023
S          5.92960        1.06801        0.40242
C          3.13150        1.04625        0.40678
C          1.90464        0.31718        0.44543
H          0.64307        2.04958        0.35654
H         -1.82251        2.01750        0.36137
H         -3.87161        2.21270       -1.60857
H         -4.57620        4.59474       -1.75345
H         -5.82591        5.62965        0.12350
H         -6.34830        4.29505        2.14788
H         -5.59767        1.93081        2.30290
H         -1.68922       -3.00571        0.63504
H          0.76856       -2.91497        0.61534
H          3.23010       -2.87337        0.60834
H          3.10189        2.13060        0.35129
