36
syn_S_O_diCN_2-OMe.log	Energy: -918655.6488274
C          0.87010       -1.57685        0.00228
C         -0.29128       -0.80704        0.00235
C         -1.58541       -1.41880        0.00065
C         -2.65823       -0.59470        0.00086
O         -3.97219       -0.99516       -0.00059
C         -2.59311        0.83782        0.00265
C         -3.96501        1.28336        0.00217
C         -4.71071        0.15364        0.00026
O         -6.02602        0.02323       -0.00083
C         -6.57010       -1.29580       -0.00320
C         -1.36605        1.44194        0.00429
C         -0.18558        0.63608        0.00419
C          1.08420        1.21253        0.00583
C          2.25192        0.44070        0.00576
C          3.53788        1.04141        0.00745
C          4.66033        0.25308        0.00732
C          6.05014        0.66171        0.00886
C          6.45269        2.02914        0.01081
N          6.73089        3.15442        0.01238
C          6.91442       -0.39431        0.00820
C          8.33334       -0.31431        0.00934
N          9.49171       -0.26563        0.01025
C          4.54155       -1.17562        0.00550
S          6.11944       -1.95352        0.00574
C          3.32334       -1.79220        0.00385
C          2.14274       -0.99642        0.00393
H          0.78500       -2.66105        0.00090
H         -1.68985       -2.49840       -0.00074
H         -4.34388        2.29279        0.00310
H         -7.65050       -1.15866       -0.00367
H         -6.26229       -1.84654        0.88962
H         -6.26117       -1.84378       -0.89734
H         -1.26937        2.52341        0.00568
H          1.17166        2.29642        0.00721
H          3.62727        2.12457        0.00883
H          3.23488       -2.87457        0.00247
