30
syn_S_O_diCl_C.log	Energy: -1307869.8205928
C          0.86414       -1.54975        0.00464
C         -0.30974       -0.79212        0.00230
C         -1.59409       -1.41588        0.00343
C         -2.68220       -0.60315        0.00101
O         -3.98709       -1.00764        0.00159
C         -2.61681        0.82534       -0.00257
C         -3.99950        1.25965       -0.00411
C         -4.73845        0.13529       -0.00154
C         -1.39707        1.44480       -0.00373
C         -0.21180        0.65062       -0.00132
C          1.05526        1.23998       -0.00239
C          2.22720        0.48095       -0.00006
C          3.51222        1.09351       -0.00120
C          4.64064        0.32035        0.00116
C          6.03106        0.73166        0.00056
Cl         6.50031        2.39092       -0.00358
C          6.89326       -0.30623        0.00352
Cl         8.60457       -0.22235        0.00386
C          4.53076       -1.11227        0.00480
S          6.11500       -1.88252        0.00730
C          3.32027       -1.73906        0.00599
C          2.12766       -0.95652        0.00357
H          0.79016       -2.63483        0.00737
H         -1.68687       -2.49658        0.00613
H         -4.37155        2.27339       -0.00678
H         -5.80612       -0.02684       -0.00148
H         -1.31230        2.52772       -0.00643
H          1.13094        2.32503       -0.00513
H          3.58861        2.17705       -0.00395
H          3.24393       -2.82259        0.00873
