57
syn_S_NPh_p-OMebenz_benz.log	Energy: -1128193.8859164
C         -3.83526       -1.93466        1.13351
C         -4.74918       -1.23347        0.34114
C         -6.15627       -1.41028        0.49450
C         -6.99674       -0.69203       -0.30701
N         -8.38957       -0.69420       -0.36236
C         -9.24204       -1.46563        0.46316
C         -9.15529       -1.35378        1.85135
C         -9.98679       -2.12111        2.65980
C        -10.91977       -2.98345        2.08961
C        -11.01122       -3.08499        0.70394
C        -10.16761       -2.33763       -0.11102
C         -6.50744        0.21941       -1.30864
C         -7.67847        0.76978       -1.97253
C         -7.84430        1.69540       -2.99818
C         -9.13175        2.03049       -3.40263
C         -8.80545        0.18473       -1.36465
C        -10.09879        0.52153       -1.75361
C        -10.24180        1.44911       -2.78071
C         -5.16521        0.40267       -1.47166
C         -4.24554       -0.31395       -0.65008
C         -2.86505       -0.15007       -0.78588
C         -1.95565       -0.85058        0.00819
C         -0.54772       -0.67993       -0.13354
C          0.32240       -1.37779        0.65538
C          1.78272       -1.34169        0.66232
C          2.62603       -0.58232       -0.13931
C          4.00830       -0.68482        0.01612
O          4.75036        0.09619       -0.81259
C          6.15351        0.03489       -0.70259
C          2.32972       -2.20787        1.62447
C          3.70313       -2.31263        1.78215
C          4.54595       -1.54976        0.97667
C         -0.19052       -2.29395        1.63851
S          1.10117       -3.08622        2.54356
C         -1.52830       -2.48911        1.80917
C         -2.45617       -1.77002        0.99579
H         -4.21149       -2.63018        1.88052
H         -6.53184       -2.10964        1.23474
H         -8.44015       -0.66215        2.28558
H         -9.91373       -2.03381        3.73956
H        -11.57321       -3.57496        2.72330
H        -11.73249       -3.75981        0.25316
H        -10.21408       -2.42830       -1.19185
H         -6.97940        2.15094       -3.47196
H         -9.27803        2.74986       -4.20196
H        -10.96472        0.08231       -1.26980
H        -11.24084        1.72789       -3.10255
H         -4.78088        1.08593       -2.22471
H         -2.48777        0.54430       -1.53381
H         -0.17847        0.01683       -0.88210
H          2.23628        0.09599       -0.89151
H          6.54406        0.72837       -1.44830
H          6.53193       -0.97361       -0.91495
H          6.49491        0.34653        0.29324
H          4.12958       -2.98052        2.52404
H          5.61773       -1.63950        1.10851
H         -1.90762       -3.18314        2.55387
