39
syn_S_S_2-F_p-CF3benz.log	Energy: -1303847.1965496
C         -3.49305        1.35262        0.24616
C         -2.16616        0.92301        0.20614
C         -1.08048        1.81830        0.44836
C          0.19776        1.35062        0.39814
S          1.66490        2.29556        0.66665
C          0.49120       -0.02647        0.10695
C          1.92878       -0.27850        0.11121
C          2.59625       -1.47991       -0.12468
C          3.98158       -1.51171       -0.07315
C          4.73435       -2.78778       -0.32817
F          3.91603       -3.82912       -0.54800
F          5.53952       -2.67721       -1.40029
F          5.52304       -3.10909        0.71318
C          2.67202        0.87686        0.39625
C          4.06432        0.84819        0.44834
C          4.71352       -0.35292        0.21194
C         -0.53251       -0.90024       -0.12828
C         -1.88743       -0.45873       -0.08722
C         -2.95009       -1.33190       -0.32410
C         -4.27995       -0.90376       -0.28476
C         -5.36141       -1.79783       -0.52727
C         -6.65622       -1.35385       -0.48294
C         -7.88043       -2.09657       -0.69814
C         -8.95704       -1.30720       -0.56846
F        -10.22270       -1.67052       -0.70141
C         -6.91470        0.03354       -0.18692
S         -8.64380        0.38018       -0.18214
C         -5.91116        0.92403        0.05151
C         -4.55701        0.47850        0.00915
H         -3.70525        2.39609        0.46774
H         -1.29424        2.86009        0.66909
H          2.03937       -2.38366       -0.34611
H          4.63267        1.74543        0.66975
H          5.79721       -0.39712        0.24873
H         -0.33020       -1.94498       -0.35024
H         -2.73769       -2.37541       -0.54568
H         -5.14569       -2.83965       -0.74862
H         -7.93235       -3.15144       -0.93355
H         -6.11893        1.96680        0.27332
