39
syn_C_O_3-Cl_tetClbenz.log	Energy: -2068134.2139459
C         -3.46490        1.00664        0.64186
C         -2.15951        0.57979        0.44218
C         -1.04049        1.36992        0.86803
C          0.19637        0.87830        0.63403
O          1.37235        1.50500        0.97677
C          0.45618       -0.37743       -0.01032
C          1.90899       -0.48030       -0.04014
C          2.82871       -1.41227       -0.50722
Cl         2.26437       -2.86201       -1.26589
C          4.19795       -1.16337       -0.35680
Cl         5.35054       -2.31599       -0.93480
C          2.37550        0.68747        0.57066
C          3.72149        0.96633        0.73638
Cl         4.19967        2.43493        1.50290
C          4.63955        0.02134        0.26263
Cl         6.32915        0.32400        0.44619
C         -0.58648       -1.15060       -0.42619
C         -1.92637       -0.69270       -0.21104
C         -3.01336       -1.45463       -0.62146
C         -4.33614       -1.02600       -0.42092
C         -5.43769       -1.80053       -0.83773
C         -6.73880       -1.37399       -0.63785
C         -7.89978       -2.12665       -1.04419
Cl        -7.67846       -3.67066       -1.83713
C         -9.16240       -1.67543       -0.83110
C         -6.97527       -0.10398        0.01376
C         -8.32444        0.33863        0.22108
C         -9.37527       -0.41782       -0.18565
C         -5.89539        0.66014        0.42493
C         -4.56691        0.23761        0.22763
H         -3.64331        1.96092        1.13157
H         -1.19007        2.32514        1.35886
H         -0.42622       -2.10429       -0.91594
H         -2.83787       -2.40936       -1.11156
H         -5.25041       -2.75149       -1.32554
H        -10.01122       -2.26961       -1.15075
H         -8.48446        1.29444        0.71173
H        -10.39396       -0.07911       -0.02682
H         -6.07738        1.61409        0.91434
