61
syn_S_NPh_p-OMebenz_m-OMebenz.log	Energy: -1200036.7090226
C         -3.54490        1.16081        0.02895
C         -4.56190        0.20276        0.01132
C         -5.93919        0.57842        0.01491
C         -6.88499       -0.40462       -0.00749
N         -8.27659       -0.29834        0.00507
C         -9.00561        0.91482        0.02429
C         -8.79977        1.86752       -0.97416
C         -9.50987        3.06288       -0.94546
C        -10.44026        3.30293        0.06244
C        -10.65109        2.34566        1.05127
C         -9.92854        1.15742        1.04212
C         -6.53911       -1.80340       -0.01719
C         -7.79465       -2.53546       -0.01073
C         -8.11897       -3.88412       -0.02621
C         -9.45431       -4.27822       -0.02963
C         -8.83060       -1.57843        0.00443
C        -10.16700       -1.94338       -0.00995
C        -10.46857       -3.30853       -0.02460
O        -11.79438       -3.59935       -0.03438
C        -12.18197       -4.95420       -0.06087
C         -5.22927       -2.18347       -0.02047
C         -4.20080       -1.19367       -0.01005
C         -2.84973       -1.54518       -0.01436
C         -1.83532       -0.58545        0.00266
C         -0.45763       -0.94909       -0.00066
C          0.51683        0.00877        0.01735
C          1.96764       -0.16135        0.01833
C          2.69245       -1.34664        0.00170
C          4.08659       -1.30701        0.00659
O          4.70700       -2.51640       -0.01045
C          6.11550       -2.54014       -0.00223
C          2.64574        1.06951        0.03993
C          4.03148        1.11322        0.04458
C          4.75521       -0.07723        0.02785
C          0.14536        1.39772        0.03933
S          1.55462        2.46036        0.05971
C         -1.15940        1.79161        0.04340
C         -2.19387        0.80759        0.02531
H         -3.81445        2.21457        0.04657
H         -6.20865        1.62955        0.04085
H         -8.08846        1.66128       -1.76780
H         -9.34453        3.80318       -1.72229
H        -10.99942        4.23332        0.07703
H        -11.37169        2.52854        1.84252
H        -10.06940        0.41475        1.82118
H         -7.33659       -4.63757       -0.03812
H         -9.69441       -5.33420       -0.03904
H        -10.97325       -1.21923       -0.01682
H        -13.27260       -4.95351       -0.07097
H        -11.82938       -5.49238        0.82832
H        -11.81251       -5.46188       -0.96101
H         -4.95099       -3.23426       -0.02524
H         -2.57907       -2.59895       -0.03030
H         -0.19561       -2.00419       -0.01740
H          2.19980       -2.31351       -0.01483
H          6.39846       -3.59339       -0.01544
H          6.52250       -2.06888        0.90199
H          6.53351       -2.04360       -0.88770
H          4.55913        2.06172        0.06120
H          5.83778       -0.03093        0.03166
H         -1.43225        2.84300        0.06055
