43
syn_C_S_m-OMebenz_3-F.log	Energy: -962956.0140397
C         -2.46303        1.34288        0.06125
C         -3.68860        0.70761        0.26964
C         -4.91950        1.42749        0.21508
C         -6.09273        0.76410        0.42500
S         -7.72299        1.43556        0.40723
C         -6.11368       -0.64413        0.69998
C         -7.47405       -1.09411        0.88130
F         -7.73144       -2.37724        1.14828
C         -8.41084       -0.14011        0.76053
C         -4.95107       -1.36261        0.75914
C         -3.70466       -0.70969        0.54600
C         -2.49506       -1.40636        0.59736
C         -1.26970       -0.76861        0.38844
C         -0.03745       -1.47270        0.43952
C          1.17410       -0.85467        0.23526
C          2.45901       -1.56664        0.28414
C          2.56207       -2.93880        0.54380
C          3.78204       -3.59422        0.58610
C          3.66099       -0.85237        0.06133
C          4.89124       -1.51332        0.10393
C          4.96407       -2.87527        0.36371
O          6.20778       -3.41597        0.38197
C          6.32895       -4.79607        0.64398
C          1.18103        0.56606       -0.04118
C          2.44523        1.23664       -0.25952
C          3.61264        0.57059       -0.21172
C         -0.00084        1.26764       -0.09526
C         -1.25521        0.64177        0.11352
H         -2.44717        2.41033       -0.14716
H         -4.90043        2.49343        0.00677
H         -9.47984       -0.26393        0.85832
H         -4.97269       -2.42821        0.96758
H         -2.50945       -2.47392        0.80567
H         -0.08854       -2.53650        0.64961
H          1.66935       -3.52893        0.72095
H          3.80215       -4.65812        0.79161
H          5.81378       -0.96661       -0.06678
H          7.39693       -5.01463        0.61311
H          5.81543       -5.39795       -0.11678
H          5.93633       -5.05457        1.63581
H          2.42519        2.30360       -0.46526
H          4.55262        1.08970       -0.37819
H          0.02187        2.33500       -0.30417
