57
syn_C_NPh_2-CF3_p-OMebenz.log	Energy: -1041957.7904755
C         -3.33619        1.64145       -0.13057
C         -2.05757        1.09479       -0.12422
C         -0.89719        1.91011        0.06187
C          0.32944        1.31454        0.06350
N          1.59265        1.87940        0.20895
C          1.86055        3.25260        0.41419
C          1.26921        3.92666        1.48375
C          1.52656        5.27964        1.67606
C          2.38927        5.95934        0.82004
C          2.98682        5.28180       -0.23952
C          2.71658        3.93422       -0.45210
C          0.49041       -0.10768       -0.13564
C          1.92158       -0.37036       -0.10165
C          2.66521       -1.53390       -0.21818
C          4.05622       -1.46016       -0.12025
O          4.71678       -2.64446       -0.24945
C          6.12044       -2.63409       -0.14588
C          2.55818        0.86719        0.10856
C          3.93706        0.94698        0.21974
C          4.68222       -0.22733        0.10071
C         -0.59688       -0.90568       -0.31524
C         -1.90867       -0.33440       -0.31144
C         -3.03991       -1.12051       -0.48863
C         -4.33253       -0.57031       -0.49356
C         -5.48362       -1.36374       -0.67268
C         -6.75191       -0.80904       -0.67639
C         -7.92707       -1.61132       -0.85836
C         -9.16044       -1.04402       -0.85837
C        -10.39931       -1.86878       -1.04867
F        -10.13494       -3.17505       -1.20489
F        -11.23153       -1.75053        0.00346
F        -11.09204       -1.46701       -2.13134
C         -6.90584        0.61380       -0.49324
C         -8.23426        1.16270       -0.50166
C         -9.32073        0.37062       -0.67669
C         -5.78260        1.40252       -0.31642
C         -4.48383        0.85128       -0.31012
H         -3.45417        2.71385        0.00759
H         -1.01201        2.98138        0.19227
H          0.61710        3.38291        2.16007
H          1.06137        5.80047        2.50745
H          2.59489        7.01347        0.97791
H          3.65568        5.80708       -0.91451
H          3.15726        3.40469       -1.29114
H          2.19802       -2.50005       -0.37891
H          6.43981       -3.66916       -0.27411
H          6.45173       -2.27428        0.83741
H          6.58017       -2.01608       -0.92875
H          4.43574        1.89300        0.40159
H          5.76065       -0.16389        0.18654
H         -0.48718       -1.97613       -0.46821
H         -2.92383       -2.19308       -0.62869
H         -5.36767       -2.43649       -0.81101
H         -7.81236       -2.68159       -0.99642
H         -8.35180        2.23403       -0.36390
H        -10.31980        0.79413       -0.68151
H         -5.89867        2.47524       -0.17849
