39
syn_C_S_tetFbenz_3-Cl.log	Energy: -1366253.8662718
C         -2.35573        1.30539        0.43930
C         -3.58012        0.64273        0.54109
C         -4.81177        1.35821        0.61322
C         -5.98281        0.66580        0.71123
S         -7.60683        1.33821        0.81171
C         -6.00988       -0.77106        0.74392
C         -7.37586       -1.24545        0.85042
Cl        -7.75892       -2.93450        0.91327
C         -8.29767       -0.26673        0.89445
C         -4.84299       -1.48192        0.67659
C         -3.59775       -0.80028        0.57360
C         -2.38936       -1.49684        0.50274
C         -1.16498       -0.83149        0.40077
C          0.06141       -1.54433        0.32846
C          1.27786       -0.90461        0.22667
C          2.57010       -1.60641        0.14874
C          2.71815       -3.00233        0.17027
F          1.67030       -3.83211        0.26668
C          3.95503       -3.61978        0.09376
F          4.03819       -4.94673        0.11850
C          3.76197       -0.84258        0.04407
C          5.00218       -1.48439       -0.03228
F          6.12162       -0.75887       -0.13100
C          5.11444       -2.85889       -0.00911
F          6.29961       -3.45511       -0.08270
C          1.28584        0.54436        0.19380
C          2.54088        1.25235        0.08652
C          3.71449        0.60247        0.01506
C          0.10632        1.24864        0.26356
C         -1.14965        0.60317        0.36827
H         -2.33956        2.39255        0.41438
H         -4.79637        2.44399        0.58866
H         -9.36918       -0.38990        0.97262
H         -4.85814       -2.56779        0.70097
H         -2.40271       -2.58397        0.52736
H          0.00497       -2.62238        0.35617
H          2.51228        2.33808        0.06434
H          4.65002        1.14271       -0.06553
H          0.13561        2.33551        0.23726
