48
syn_C_NPh_diCN_diCN.log	Energy: -893724.0462252
C         -3.44794       -0.57093       -0.28304
C         -4.21228       -0.22655        0.83176
C         -5.63519       -0.19812        0.76932
C         -6.32192        0.14528        1.89884
N         -7.69304        0.26023        2.10550
C         -8.70397       -0.00325        1.13579
C         -8.77868       -1.26927        0.55825
C         -9.75690       -1.52593       -0.39560
C        -10.66305       -0.53075       -0.75398
C        -10.58624        0.72774       -0.16422
C         -9.59848        1.00118        0.77594
C         -5.66337        0.48863        3.12849
C         -6.70873        0.81403        4.07164
C         -6.53190        1.20863        5.42138
N         -6.34632        1.52908        6.52056
C         -7.90269        0.66135        3.40950
C         -9.21386        0.85273        3.93029
N        -10.27741        1.01666        4.35946
C         -4.29858        0.46951        3.21697
C         -3.53565        0.10780        2.07115
C         -2.14205        0.07340        2.11617
C         -1.37740       -0.27371        0.99606
C          0.03376       -0.30757        1.04337
C          0.77972       -0.65013       -0.06790
C          2.22445       -0.69140       -0.04344
C          2.90323       -0.36612        1.17619
N          3.41342       -0.09645        2.18138
C          2.93617       -1.03602       -1.16786
C          4.36967       -1.07794       -1.14734
N          5.52747       -1.12222       -1.16729
C          0.11131       -0.98127       -1.30527
C          0.90502       -1.33398       -2.44848
C          2.25910       -1.36244       -2.39072
C         -1.26856       -0.95154       -1.36203
C         -2.04921       -0.60404       -0.23716
H         -3.95171       -0.82020       -1.21378
H         -6.14473       -0.44080       -0.15739
H         -8.08075       -2.04198        0.86516
H         -9.81982       -2.51038       -0.84806
H        -11.43164       -0.73755       -1.49182
H        -11.29134        1.50474       -0.44069
H         -9.51963        1.98457        1.22822
H         -3.79478        0.72949        4.14330
H         -1.63564        0.32357        3.04503
H          0.53331       -0.05773        1.97549
H          0.39453       -1.58125       -3.37470
H          2.85448       -1.62916       -3.25632
H         -1.76980       -1.20087       -2.29409
