43
syn_S_O_2-CF3_m-OMebenz.log	Energy: -1110764.3758583
C         -3.27445        1.42287        0.29218
C         -1.99683        0.88586        0.14590
C         -0.82769        1.64901        0.46425
C          0.37705        1.05346        0.29511
O          1.59238        1.63621        0.55086
C          0.54407       -0.28915       -0.18198
C          1.98179       -0.49832       -0.20267
C          2.83352       -1.54910       -0.54809
C          4.20062       -1.37288       -0.43219
C          2.54220        0.69668        0.24885
C          3.90502        0.91248        0.37879
C          4.73602       -0.15387        0.02701
O          6.08688       -0.11010        0.09470
C          6.69331        1.08063        0.54751
C         -0.55305       -1.03645       -0.49234
C         -1.85717       -0.46919       -0.33684
C         -3.00509       -1.19832       -0.64185
C         -4.28871       -0.65981       -0.49490
C         -5.45355       -1.41107       -0.80755
C         -6.69833       -0.85595       -0.65208
C         -7.99334       -1.44357       -0.90946
C         -9.00947       -0.60169       -0.64190
C        -10.46457       -0.90718       -0.80195
F        -10.64592       -2.15404       -1.25952
F        -11.12345       -0.79940        0.36297
F        -11.05488       -0.06504       -1.66516
C         -6.82093        0.49256       -0.17068
S         -8.50760        0.97710       -0.05552
C         -5.72776        1.24932        0.14080
C         -4.42695        0.69036       -0.01367
H         -3.37955        2.44252        0.65557
H         -0.91414        2.66729        0.82770
H          2.43382       -2.49389       -0.90331
H          4.89397       -2.16536       -0.69060
H          4.27749        1.86381        0.73549
H          7.76787        0.89760        0.52402
H          6.38844        1.32043        1.57403
H          6.45493        1.92675       -0.10934
H         -0.45841       -2.05594       -0.85576
H         -2.90113       -2.21834       -1.00533
H         -5.34688       -2.42999       -1.17069
H         -8.13452       -2.45219       -1.27768
H         -5.82733        2.26802        0.50421
