42
syn_C_O_diCN_p-CNbenz.log	Energy: -799771.8469014
C         -3.30224        1.01573        0.99521
C         -2.01488        0.57793        0.71442
C         -0.87294        1.16669        1.35262
C          0.34634        0.68241        1.02363
O          1.54175        1.12525        1.53422
C          0.55692       -0.37839        0.07973
C          2.00034       -0.56193        0.04442
C          2.86226       -1.40459       -0.64192
C          4.23533       -1.28024       -0.40404
C          5.15479       -2.13767       -1.09800
N          5.89658       -2.83017       -1.65827
C          2.51943        0.37795        0.94473
C          3.87424        0.51821        1.19528
C          4.73138       -0.32875        0.50462
C         -0.50558       -0.95727       -0.54239
C         -1.82864       -0.49530       -0.24322
C         -2.93969       -1.05934       -0.85626
C         -4.24369       -0.61832       -0.57390
C         -5.36981       -1.19178       -1.19635
C         -6.65005       -0.74963       -0.91028
C         -7.81976       -1.32148       -1.53444
C         -7.64704       -2.38299       -2.48200
N         -7.46388       -3.23899       -3.24174
C         -9.07784       -0.85774       -1.22661
C        -10.24197       -1.42402       -1.84451
N        -11.20326       -1.85816       -2.32439
C         -6.84080        0.31745        0.04127
C         -8.17427        0.76254        0.32513
C         -9.25285        0.20367       -0.27911
C         -5.73867        0.88562        0.65658
C         -4.42915        0.44728        0.37695
H         -3.44529        1.82004        1.71257
H         -0.99392        1.96994        2.07091
H          2.49311       -2.14294       -1.34558
H          4.24338        1.25553        1.89813
H          5.80192       -0.26048        0.66408
H         -0.37446       -1.76138       -1.26068
H         -2.80070       -1.86380       -1.57435
H         -5.22250       -1.99536       -1.91284
H         -8.30906        1.56652        1.04282
H        -10.25888        0.54331       -0.06132
H         -5.88448        1.68980        1.37361
