37
syn_O_O_2-OMe_3-CF3.log	Energy: -811704.6775060
C          0.87329       -1.16267        0.10334
C          2.07442       -0.44737        0.06602
C          3.33570       -1.11324        0.12967
C          4.44967       -0.33825        0.08732
O          5.74941       -0.78158        0.13578
C          4.42694        1.08311       -0.01593
C          5.82532        1.46566       -0.02603
C          6.37183        2.84098       -0.12025
F          5.94380        3.61391        0.89389
F          7.71509        2.84044       -0.09418
F          5.98585        3.45047       -1.25541
C          6.53351        0.32321        0.06559
C          3.23276        1.74605       -0.07846
C          2.02354        0.99209       -0.03874
C          0.77528        1.62093       -0.09918
C         -0.42376        0.90825       -0.06183
C         -1.68710        1.57427       -0.12477
C         -2.83941        0.83854       -0.08479
C         -4.25402        1.12672       -0.12143
C         -4.86846       -0.07593       -0.04141
O         -6.16329       -0.35290       -0.03671
C         -6.55324       -1.72017        0.06809
C         -2.74484       -0.58730        0.01956
O         -4.00800       -1.13189        0.04458
C         -1.58621       -1.28315        0.08330
C         -0.36830       -0.53179        0.04304
H          0.91004       -2.24692        0.18222
H          3.39158       -2.19360        0.20864
H          7.59784        0.14432        0.09196
H          3.19166        2.82801       -0.15688
H          0.73947        2.70522       -0.17800
H         -1.71174        2.65718       -0.20336
H         -4.74315        2.08479       -0.19587
H         -7.64241       -1.70873        0.05572
H         -6.19385       -2.15912        1.00285
H         -6.17519       -2.30099       -0.77765
H         -1.56910       -2.36498        0.16183
