58
syn_NPh_NPh_3-F_diCF3.log	Energy: -1278510.3845021
C          0.64363        0.31686        0.61126
C         -0.64657       -0.16260        0.36477
C         -1.79971        0.58958        0.71664
C         -3.02785        0.05505        0.44093
N         -4.28796        0.58916        0.68409
C         -4.49786        1.84910        1.32107
C         -4.15489        3.01570        0.64210
C         -4.31962        4.24552        1.26895
C         -4.83214        4.30667        2.56276
C         -5.17178        3.13566        3.23429
C         -4.99606        1.90024        2.61939
C         -3.20801       -1.22993       -0.17030
C         -4.63907       -1.43177       -0.26736
C         -5.31954       -2.63325       -0.84088
F         -4.43873       -3.63102       -1.04283
F         -6.27126       -3.11678       -0.02512
F         -5.90012       -2.38239       -2.02572
C         -5.23562       -0.31250        0.24103
C         -6.69898        0.01105        0.37195
F         -7.12198       -0.15037        1.63801
F         -6.94280        1.28404        0.02704
F         -7.44742       -0.76685       -0.40885
C         -2.10410       -1.97023       -0.51749
C         -0.80472       -1.45480       -0.26371
C          0.34000       -2.18059       -0.60970
C          1.62763       -1.70044       -0.36615
C          2.78111       -2.44678       -0.73742
C          4.02208       -1.93640       -0.47270
C          5.36068       -2.39287       -0.72705
F          5.66133       -3.55266       -1.31461
C          6.23785       -1.47624       -0.26486
C          4.17386       -0.66182        0.18318
N          5.53625       -0.41158        0.30622
C          6.14187        0.72965        0.87605
C          7.19390        1.36229        0.21163
C          7.80835        2.47019        0.78474
C          7.36553        2.96665        2.00764
C          6.31134        2.33723        2.66433
C          5.70629        1.21449        2.11094
C          3.09112        0.09759        0.53382
C          1.78631       -0.40958        0.26902
H          0.76045        1.28846        1.08627
H         -1.69582        1.56063        1.19031
H         -3.76815        2.94847       -0.36981
H         -4.05562        5.15725        0.74247
H         -4.96627        5.26850        3.04791
H         -5.56773        3.18084        4.24385
H         -5.24613        0.97922        3.13414
H         -2.20383       -2.94328       -0.98291
H          0.22187       -3.15190       -1.08497
H          2.66690       -3.40619       -1.23307
H          7.31716       -1.49364       -0.25558
H          7.51445        0.99331       -0.75797
H          8.62717        2.95629        0.26313
H          7.84053        3.83790        2.44736
H          5.96696        2.71011        3.62414
H          4.91078        0.69854        2.63854
H          3.20161        1.07311        0.99575
