41
syn_S_S_2-CN_m-OMebenz.log	Energy: -1159858.2226451
C         -3.52461        1.40145        0.36615
C         -2.19922        0.98763        0.24496
C         -1.11067        1.85715        0.56215
C          0.16740        1.40821        0.42771
S          1.63364        2.32816        0.76789
C          0.46485        0.07381       -0.02744
C          1.90208       -0.16136       -0.08584
C          2.58938       -1.31715       -0.47343
C          3.96943       -1.34228       -0.46083
C          2.64523        0.95562        0.31058
C          4.03861        0.95472        0.33175
C          4.69860       -0.20927       -0.05928
O          6.04453       -0.34847       -0.08667
C          6.83727        0.75144        0.30400
C         -0.56096       -0.77345       -0.33584
C         -1.91826       -0.35003       -0.21169
C         -2.98078       -1.19659       -0.52091
C         -4.31350       -0.78428       -0.40064
C         -5.39227       -1.65115       -0.71766
C         -6.68940       -1.21869       -0.59029
C         -7.90908       -1.93767       -0.85910
C         -9.01778       -1.19643       -0.62227
C        -10.36144       -1.63067       -0.79489
N        -11.45806       -1.98173       -0.93454
C         -6.95398        0.11870       -0.13333
S         -8.68033        0.43815       -0.05270
C         -5.94532        0.98359        0.18199
C         -4.59348        0.55354        0.05617
H         -3.73467        2.41129        0.71092
H         -1.32375        2.86517        0.90610
H          2.03892       -2.19985       -0.78593
H          4.52076       -2.22766       -0.75731
H          4.58043        1.83906        0.64475
H          7.87274        0.42443        0.20636
H          6.64361        1.03525        1.34622
H          6.66822        1.61878       -0.34671
H         -0.36014       -1.78440       -0.68114
H         -2.77063       -2.20657       -0.86572
H         -5.18039       -2.65992       -1.06214
H         -7.94374       -2.96112       -1.21274
H         -6.15018        1.99293        0.52662
