43
syn_C_O_3-F_p-OMebenz.log	Energy: -760287.1195436
C         -3.45900        1.06642        0.49937
C         -2.15265        0.61385        0.37229
C         -1.03668        1.44169        0.73019
C          0.20628        0.92764        0.57684
O          1.37570        1.57692        0.86781
C          0.46162       -0.39568        0.07748
C          1.91197       -0.52286        0.07999
C          2.80080       -1.52609       -0.27387
C          4.17070       -1.28555       -0.13289
O          4.98265       -2.31376       -0.49939
C          6.37480       -2.13746       -0.37901
C          2.39129        0.69905        0.56649
C          3.73743        0.95659        0.71322
C          4.63154       -0.05556        0.35600
C         -0.57568       -1.20459       -0.27019
C         -1.91906       -0.72487       -0.13374
C         -3.00529       -1.51885       -0.47769
C         -4.32878       -1.06368       -0.35040
C         -5.43118       -1.86897       -0.69967
C         -6.72533       -1.39980       -0.56628
C         -7.86928       -2.19118       -0.91196
F         -7.63144       -3.42831       -1.37898
C         -9.14115       -1.74568       -0.78685
C         -6.97157       -0.06963       -0.06400
C         -8.32944        0.38248        0.06055
C         -9.36684       -0.42375       -0.28692
C         -5.88928        0.72358        0.27998
C         -4.56216        0.26610        0.15213
H         -3.63768        2.06993        0.87862
H         -1.19499        2.44512        1.11020
H          2.46815       -2.48588       -0.65439
H          6.82641       -3.07009       -0.71920
H          6.67058       -1.95249        0.66210
H          6.73406       -1.31262       -1.00846
H          4.09093        1.90893        1.09164
H          5.69325        0.13075        0.46512
H         -0.40724       -2.20849       -0.65002
H         -2.82956       -2.52296       -0.85723
H         -5.25910       -2.87136       -1.07860
H         -9.96806       -2.38938       -1.06430
H         -8.50867        1.38456        0.43925
H        -10.38925       -0.07266       -0.18905
H         -6.06464        1.72764        0.65953
