34
syn_S_O_C_2-OMe.log	Energy: -802937.6635480
C          1.29813       -1.13421        0.02303
C          2.41383       -0.29882        0.01472
C          3.74240       -0.83260        0.02703
C          4.76551        0.05253        0.01760
O          6.10374       -0.26970        0.02671
C          4.61555        1.47714       -0.00357
C          5.96060        2.00357       -0.00673
C          6.77099        0.92044        0.01164
O          8.09454        0.86857        0.01680
C          8.71160       -0.41618        0.03599
C          3.35470        2.00704       -0.01557
C          2.22266        1.13387       -0.00686
C          0.91971        1.63354       -0.01890
C         -0.20132        0.79666       -0.01078
C         -1.52484        1.31753       -0.02348
C         -2.60589        0.47352       -0.01513
C         -4.01824        0.79550       -0.02543
C         -4.80626       -0.29599       -0.01227
C         -2.39372       -0.94908        0.00684
S         -3.92746       -1.81177        0.01394
C         -1.14084       -1.49155        0.01951
C         -0.00648       -0.62988        0.01094
H          1.44613       -2.21188        0.03933
H          3.90984       -1.90433        0.04314
H          6.27941        3.03356       -0.02072
H          9.78295       -0.21907        0.03762
H          8.43868       -0.99495       -0.85069
H          8.43170       -0.97176        0.93521
H          3.19479        3.08119       -0.03171
H          0.77017        2.71102       -0.03523
H         -1.66867        2.39500       -0.03999
H         -4.39664        1.81099       -0.04208
H         -5.88824       -0.31947       -0.01616
H         -0.98872       -2.56714        0.03597
