51
syn_S_NPh_2-OMe_tetClbenz.log	Energy: -2185356.5953083
C         -3.27374        1.62062       -0.40477
C         -2.00553        1.04515       -0.28885
C         -0.84014        1.83663       -0.07375
C          0.36280        1.20279        0.03134
N          1.62016        1.76974        0.24106
C          1.79439        3.18525        0.30673
C          1.62692        3.84073        1.52278
C          1.75707        5.22438        1.57811
C          2.04463        5.94455        0.42129
C          2.19394        5.28326       -0.79545
C          2.06125        3.90049       -0.85714
C          0.50746       -0.22069       -0.07077
C          1.93080       -0.48741        0.08354
C          2.68431       -1.65585        0.07816
Cl         1.90091       -3.18555       -0.15235
C          4.06869       -1.59910        0.25666
Cl         5.00849       -3.05325        0.24463
C          2.57076        0.76195        0.27098
C          3.95291        0.83228        0.46183
Cl         4.75110        2.34946        0.72375
C          4.69307       -0.35573        0.44868
Cl         6.40674       -0.29159        0.67661
C         -0.59993       -0.99849       -0.27688
C         -1.88246       -0.38760       -0.39015
C         -3.03022       -1.15748       -0.60043
C         -4.29650       -0.58221       -0.71578
C         -5.46372       -1.37200       -0.92978
C         -6.69501       -0.78341       -1.03901
C         -7.98503       -1.40208       -1.25417
C         -8.98506       -0.49296       -1.30721
O        -10.29993       -0.64714       -1.48726
C        -10.74603       -1.98231       -1.65256
C         -6.79765        0.65123       -0.93484
S         -8.46801        1.18348       -1.10426
C         -5.71044        1.44562       -0.73093
C         -4.41821        0.84961       -0.61436
H         -3.37107        2.70135       -0.32899
H         -0.92046        2.91623        0.00319
H          1.40791        3.26045        2.41340
H          1.63664        5.73962        2.52586
H          2.14930        7.02418        0.46737
H          2.41349        5.84456       -1.69818
H          2.17373        3.36683       -1.79555
H         -0.52692       -2.07610       -0.35850
H         -2.93193       -2.23823       -0.67629
H         -5.36187       -2.45160       -1.00496
H         -8.12036       -2.47073       -1.35888
H        -11.82600       -1.92564       -1.78473
H        -10.50930       -2.58182       -0.76567
H        -10.28497       -2.43755       -2.53698
H         -5.80345        2.52528       -0.65449
