33
syn_S_S_2-CF3_3-F.log	Energy: -1207458.3720402
C          1.06019       -1.33229        0.22448
C          2.23979       -0.59681        0.08760
C          3.51905       -1.22114        0.17575
C          4.64418       -0.46220        0.03558
S          6.31867       -1.00642        0.10602
C          4.56633        0.95136       -0.19898
C          5.89360        1.51031       -0.30868
F          6.05994        2.81660       -0.52855
C          6.89562        0.62712       -0.17378
C          3.35438        1.57947       -0.28843
C          2.15651        0.82439       -0.14769
C          0.89825        1.42481       -0.23150
C         -0.28124        0.68915       -0.09424
C         -1.55998        1.30710       -0.18020
C         -2.70027        0.55988       -0.04161
C         -4.07945        0.98966       -0.09471
C         -4.94708       -0.02376        0.08433
C         -6.43880        0.09061        0.08312
F         -6.82237        1.35989       -0.11118
F         -6.98987       -0.65680       -0.88614
F         -6.96592       -0.32343        1.24608
C         -2.60137       -0.85660        0.19164
S         -4.19273       -1.59150        0.33394
C         -1.39655       -1.49023        0.28139
C         -0.19761       -0.73139        0.14043
H          1.12309       -2.40346        0.40166
H          3.57562       -2.29124        0.35326
H          7.95494        0.83518       -0.22145
H          3.30037        2.64947       -0.46587
H          0.83552        2.49606       -0.40863
H         -1.62091        2.37774       -0.35679
H         -4.38447        2.01545       -0.26035
H         -1.32876       -2.55974        0.45784
