62
syn_NPh_NPh_3-F_p-OMebenz.log	Energy: -1023860.2403252
C         -3.77263        0.31777        0.51566
C         -2.40854        0.08610        0.34871
C         -1.45260        1.14362        0.45134
C         -0.13043        0.85129        0.28364
N          0.97953        1.69315        0.31895
C          0.95010        3.08304        0.57181
C          0.34494        3.56975        1.73185
C          0.30978        4.93890        1.97231
C          0.89533        5.82602        1.07276
C          1.50799        5.33767       -0.07829
C          1.52713        3.97141       -0.33725
C          0.32528       -0.48504       -0.01181
C          1.77187       -0.40782       -0.15235
C          2.74252       -1.36129       -0.41589
C          4.08130       -0.96805       -0.46908
O          4.97460       -1.96214       -0.73731
C          6.33989       -1.62660       -0.79105
C          2.13056        0.93795        0.05474
C          3.45825        1.33334        0.01672
C          4.43215        0.36945       -0.25005
C         -0.56717       -1.50911       -0.11511
C         -1.96196       -1.25872        0.06584
C         -2.90321       -2.28018       -0.03099
C         -4.27472       -2.04952        0.13648
C         -5.22388       -3.09910        0.02090
C         -6.55419       -2.82228        0.19565
C         -7.75316       -3.60988        0.12319
F         -7.77986       -4.92068       -0.12893
C         -8.82065       -2.81847        0.36516
C         -6.99451       -1.48748        0.50234
N         -8.38127       -1.51548        0.61093
C         -9.23447       -0.42425        0.88211
C         -8.94197        0.45639        1.92568
C         -9.79129        1.52604        2.18547
C        -10.94525        1.71128        1.42862
C        -11.24263        0.82155        0.40002
C        -10.38709       -0.23735        0.11699
C         -6.11091       -0.44461        0.59842
C         -4.72439       -0.70668        0.42072
H         -4.11203        1.32949        0.72753
H         -1.79299        2.15439        0.65284
H         -0.08781        2.86948        2.43937
H         -0.16516        5.31204        2.87467
H          0.87384        6.89374        1.26774
H          1.96083        6.02373       -0.78770
H          1.97880        3.58443       -1.24544
H          2.49224       -2.40476       -0.57765
H          6.87018       -2.55398       -1.01199
H          6.69772       -1.22708        0.16744
H          6.54734       -0.89594       -1.58448
H          3.74618        2.36385        0.19554
H          5.46995        0.68011       -0.28082
H         -0.23577       -2.51966       -0.34030
H         -2.56414       -3.29148       -0.24612
H         -4.89096       -4.10603       -0.21314
H         -9.86936       -3.06762        0.42264
H         -8.06306        0.28679        2.53887
H         -9.55692        2.20790        2.99734
H        -11.60961        2.54310        1.64030
H        -12.13790        0.95962       -0.19862
H        -10.59831       -0.91262       -0.70665
H         -6.44282        0.56977        0.79426
