58
syn_NPh_NPh_diF_tetClbenz.log	Energy: -2167818.4626333
C         -3.90012        0.53378        0.22961
C         -2.53863        0.25950        0.10120
C         -1.55130        1.28042        0.23522
C         -0.24024        0.93622        0.09363
N          0.88128        1.76123        0.18236
C          0.76146        3.14054        0.53051
C          0.82017        3.52025        1.86836
C          0.66753        4.86021        2.20702
C          0.44193        5.80936        1.21289
C          0.36335        5.41920       -0.12171
C          0.51923        4.08071       -0.46641
C          0.19253       -0.40568       -0.17797
C          1.64652       -0.34860       -0.24382
C          2.62523       -1.30861       -0.47412
Cl         2.16649       -2.95730       -0.75305
C          3.97510       -0.94761       -0.48007
Cl         5.19470       -2.14368       -0.76195
C          2.02122        0.99785       -0.01555
C          3.36609        1.37472       -0.03017
Cl         3.84327        3.02402        0.21478
C          4.33598        0.39145       -0.25951
Cl         6.00801        0.83500       -0.27549
C         -0.73748       -1.39995       -0.30996
C         -2.12437       -1.09485       -0.17482
C         -3.09463       -2.08885       -0.30471
C         -4.46026       -1.81654       -0.17668
C         -5.43731       -2.84029       -0.31992
C         -6.76233       -2.52679       -0.18383
C         -7.97583       -3.28765       -0.28253
F         -8.05851       -4.59515       -0.53354
C         -9.00546       -2.43972       -0.06967
F        -10.30072       -2.68601       -0.04844
C         -7.16647       -1.17339        0.10265
N         -8.55884       -1.14630        0.16851
C         -9.38059       -0.03039        0.46633
C         -9.11299        0.74223        1.59645
C         -9.90808        1.84785        1.87731
C        -10.98176        2.16878        1.05109
C        -11.25344        1.38384       -0.06625
C        -10.44940        0.29103       -0.36952
C         -6.26101       -0.15859        0.23340
C         -4.87578       -0.46095        0.09966
H         -4.21426        1.55434        0.43687
H         -1.84939        2.30282        0.44429
H          0.99662        2.76555        2.62823
H          0.72455        5.16311        3.24779
H          0.32405        6.85522        1.47932
H          0.18394        6.15796       -0.89648
H          0.46701        3.75664       -1.50087
H         -0.44693       -2.42313       -0.51484
H         -2.77933       -3.10886       -0.51331
H         -5.12577       -3.85660       -0.54095
H         -8.29152        0.46758        2.25046
H         -9.69534        2.45058        2.75481
H        -11.60604        3.02716        1.27828
H        -12.08849        1.62925       -0.71496
H        -10.64353       -0.31111       -1.25052
H         -6.57423        0.86213        0.42786
