51
syn_O_NPh_diF_m-OMebenz.log	Energy: -953629.5235892
C         -3.50901        1.27205       -0.19529
C         -2.19541        0.80112       -0.15124
C         -1.08540        1.69612       -0.08130
C          0.17305        1.17197       -0.03650
N          1.40499        1.82431        0.01978
C          1.58941        3.22671        0.06511
C          0.99738        3.97493        1.08328
C          1.17318        5.35398        1.11911
C          1.95473        5.98760        0.15630
C          2.55233        5.23719       -0.85293
C          2.36270        3.86041       -0.90839
C          0.41817       -0.24832       -0.07492
C          1.86038       -0.41506       -0.03700
C          2.70333       -1.52638       -0.03435
C          4.07279       -1.34386        0.02789
C          2.42230        0.86994        0.01973
C          3.79785        1.08194        0.09451
C          4.61605       -0.04761        0.09596
O          5.96925        0.00477        0.16262
C          6.58314        1.27124        0.23793
C         -0.62910       -1.11993       -0.14188
C         -1.96726       -0.62324       -0.17821
C         -3.06291       -1.48438       -0.24454
C         -4.37952       -1.01530       -0.28750
C         -5.48480       -1.91454       -0.35542
C         -6.75065       -1.40162       -0.39602
C         -8.08553       -1.94240       -0.46520
F         -8.41368       -3.23134       -0.51015
C         -8.92417       -0.89179       -0.47514
F        -10.23032       -0.83292       -0.52878
C         -6.95071        0.01266       -0.37036
O         -8.29700        0.30673       -0.41976
C         -5.94325        0.91701       -0.30650
C         -4.60708        0.41074       -0.26260
H         -3.68390        2.34549       -0.17696
H         -1.25920        2.76755       -0.07041
H          0.40798        3.46844        1.84118
H          0.70787        5.93318        1.91082
H          2.09650        7.06327        0.19173
H          3.15671        5.72629       -1.61082
H          2.80293        3.26929       -1.70554
H          2.29059       -2.53005       -0.07819
H          4.75644       -2.18527        0.03016
H          4.19799        2.08594        0.15743
H          7.65646        1.08312        0.28111
H          6.27398        1.81551        1.13951
H          6.35762        1.88088       -0.64671
H         -0.46307       -2.19361       -0.17364
H         -2.88762       -2.55788       -0.26451
H         -5.30971       -2.98564       -0.37408
H         -6.13502        1.98447       -0.28928
