52
syn_C_S_p-CF3benz_p-OMebenz.log	Energy: -1208535.1825247
C         -3.44880        1.16154       -0.92299
C         -2.11363        0.79889       -0.76290
C         -1.05689        1.52415       -1.39594
C          0.23372        1.13227       -1.21053
S          1.66335        1.89686       -1.90477
C          0.57129       -0.00151       -0.38827
C          2.01483       -0.22257       -0.34410
C          2.70942       -1.21240        0.33990
C          4.10112       -1.26292        0.26046
O          4.69148       -2.26494        0.96186
C          6.09656       -2.36709        0.92129
C          2.71892        0.72080       -1.11117
C          4.10215        0.67451       -1.19282
C          4.79590       -0.31920       -0.50580
C         -0.42073       -0.70918        0.22639
C         -1.78930       -0.33817        0.06314
C         -2.81740       -1.04667        0.68127
C         -4.16004       -0.68295        0.52103
C         -5.21028       -1.40003        1.14749
C         -6.53310       -1.04958        0.99546
C         -7.63465       -1.78056        1.63698
C         -7.41791       -2.89839        2.45978
C         -8.47268       -3.56643        3.04939
C         -8.23533       -4.75962        3.93234
F         -6.93448       -5.07722        4.03273
F         -8.69208       -4.54463        5.17975
F         -8.87860       -5.84717        3.46973
C         -8.96448       -1.35408        1.42684
C        -10.02492       -2.04865        2.03678
C         -9.79172       -3.14264        2.83983
C         -6.85131        0.08994        0.16618
C         -8.23446        0.47348       -0.00679
C         -9.23259       -0.20687        0.58705
C         -5.84485        0.79964       -0.45089
C         -4.48218        0.44902       -0.30161
H         -3.69665        2.01845       -1.54528
H         -1.30453        2.37999       -2.01726
H          2.19586       -1.95597        0.94081
H          6.35313       -3.22565        1.54284
H          6.57855       -1.46930        1.32961
H          6.45947       -2.54004       -0.10022
H          4.65056        1.40110       -1.78397
H          5.87680       -0.34608       -0.57654
H         -0.18373       -1.56719        0.85029
H         -2.57102       -1.90393        1.30396
H         -4.92805       -2.24950        1.76132
H         -6.41350       -3.25680        2.64603
H        -11.04237       -1.70835        1.86506
H        -10.61538       -3.67314        3.30639
H         -8.44924        1.33374       -0.63507
H        -10.26731        0.09364        0.44721
H         -6.10012        1.65528       -1.07212
