47
syn_S_O_m-OMebenz_p-CNbenz.log	Energy: -1053573.9511750
C         -2.99972       -1.30622        1.55015
C         -4.13732       -0.73994        0.97172
C         -5.45174       -1.11205        1.39701
C         -6.50149       -0.51438        0.78275
O         -7.82845       -0.74995        1.06242
C         -6.36499        0.45818       -0.25677
C         -7.72951        0.81816       -0.61134
C         -8.30734        1.68676       -1.52534
C         -9.70383        1.76163       -1.57566
C        -10.33161        2.65150       -2.51146
N        -10.83753        3.37039       -3.26738
C         -8.54909        0.04852        0.22666
C         -9.93292        0.10739        0.19332
C        -10.50405        0.97925       -0.72428
C         -5.12299        0.83064       -0.68064
C         -3.97237        0.23952       -0.07574
C         -2.68161        0.59067       -0.47856
C         -1.54582        0.02295        0.10111
C         -0.23093        0.38489       -0.31441
C          0.86618       -0.18519        0.26815
C          2.27875        0.04377       -0.00852
C          2.86407        0.90648       -0.94210
C          4.23793        0.98112       -1.05375
C          3.11643       -0.73236        0.79967
C          4.50578       -0.67444        0.70566
C          5.06297        0.19299       -0.23247
O          6.39328        0.34860       -0.42969
C          7.27824       -0.41385        0.36132
C          0.68470       -1.15996        1.31134
S          2.22590       -1.76458        1.92076
C         -0.55211       -1.53653        1.74082
C         -1.71081       -0.95312        1.14508
H         -3.12146       -2.04436        2.33946
H         -5.59269       -1.84640        2.18260
H         -7.70243        2.29627       -2.18810
H        -10.53718       -0.50148        0.85534
H        -11.58329        1.06307       -0.79079
H         -4.99087        1.56713       -1.46838
H         -2.55864        1.32888       -1.26800
H         -0.11801        1.12343       -1.10405
H          2.23887        1.52124       -1.58319
H          4.71092        1.64299       -1.77071
H          5.12254       -1.29075        1.34862
H          8.28255       -0.13627        0.04025
H          7.13181       -1.48994        0.20339
H          7.16245       -0.18392        1.42814
H         -0.67763       -2.27333        2.52901
