36
syn_C_C_2-F_diF.log	Energy: -717945.3019901
C         -2.26126        0.60199        1.62363
C         -3.52870        0.29791        1.11867
C         -4.71409        0.70744        1.77278
C         -5.96444        0.40518        1.27137
C         -7.17549        0.81696        1.92927
C         -8.39137        0.50565        1.41376
C         -6.06049       -0.35210        0.04157
C         -7.37153       -0.65122       -0.45503
F         -7.47524       -1.35089       -1.59137
C         -8.48340       -0.24083        0.20153
F         -9.69835       -0.52978       -0.27775
C         -4.91975       -0.76333       -0.61598
C         -3.63488       -0.45794       -0.10908
C         -2.46730       -0.86585       -0.76062
C         -1.19942       -0.56227       -0.25626
C         -0.01293       -0.97164       -0.90954
C          1.23622       -0.66821       -0.40517
C          2.44520       -1.08141       -1.06425
C          3.64087       -0.75570       -0.52411
F          4.78028       -1.13214       -1.12368
C          1.33992        0.08929        0.82522
C          2.64983        0.39636        1.33604
C          3.76956       -0.00962        0.68788
C          0.19216        0.49634        1.47500
C         -1.09471        0.19357        0.97155
H         -2.18094        1.17073        2.54736
H         -4.63324        1.27612        2.69633
H         -7.09928        1.38482        2.85147
H         -9.31545        0.80689        1.89486
H         -5.00477       -1.33047       -1.53726
H         -2.54813       -1.43434       -1.68419
H         -0.09385       -1.54005       -1.83302
H          2.39862       -1.64981       -1.98705
H          2.72592        0.96457        2.25885
H          4.76378        0.21322        1.05902
H          0.27289        1.06507        2.39874
