40
syn_C_O_3-CN_tetClbenz.log	Energy: -1837605.0705738
C         -3.39685        0.95335        0.82093
C         -2.09397        0.55286        0.55966
C         -0.97121        1.25947        1.10497
C          0.26288        0.80090        0.79982
O          1.44125        1.35811        1.23769
C          0.51585       -0.34179       -0.03107
C          1.96820       -0.44926       -0.07352
C          2.88280       -1.30457       -0.67749
Cl         2.31085       -2.61460       -1.65266
C          4.25312       -1.09189       -0.48691
Cl         5.39964       -2.14920       -1.23361
C          2.44061        0.60602        0.71180
C          3.78776        0.84623        0.92228
Cl         4.27299        2.17440        1.90886
C          4.70075       -0.02073        0.30997
Cl         6.39142        0.23694        0.54258
C         -0.53052       -1.03372       -0.56373
C         -1.86800       -0.60476       -0.28243
C         -2.95864       -1.28637       -0.80802
C         -4.27891       -0.88437       -0.54573
C         -5.38556       -1.57635       -1.07884
C         -6.68093       -1.17132       -0.81361
C         -7.83951       -1.85774       -1.34373
C         -7.64722       -3.00731       -2.18027
N         -7.47252       -3.93463       -2.85443
C         -9.10654       -1.43009       -1.06126
C         -6.91078       -0.01968        0.02353
C         -8.26089        0.38752        0.28898
C         -9.31855       -0.28963       -0.23192
C         -5.82859        0.66552        0.55109
C         -4.50314        0.26605        0.29084
H         -3.56980        1.82148        1.45229
H         -1.11554        2.12806        1.73771
H         -0.37562       -1.90110       -1.19509
H         -2.78871       -2.15487       -1.43970
H         -5.20938       -2.44394       -1.70949
H         -9.95764       -1.96311       -1.47175
H         -8.42072        1.25672        0.92117
H        -10.33431        0.02891       -0.02320
H         -6.00373        1.53364        1.18218
