42
syn_C_O_3-F_m-CF3benz.log	Energy: -899887.6611284
C         -3.46928        1.04722        0.52991
C         -2.16445        0.60801        0.35038
C         -1.04428        1.42746        0.71460
C          0.19506        0.92563        0.50786
O          1.37303        1.56881        0.79680
C          0.44566       -0.37217       -0.05231
C          1.89544       -0.48767       -0.09037
C          2.79546       -1.46575       -0.50262
C          4.15612       -1.21411       -0.37825
C          2.37909        0.71569        0.43506
C          3.72653        0.99210        0.57055
C          4.60985       -0.00078        0.15184
C          6.09277        0.25371        0.21470
F          6.77250       -0.85633        0.54848
F          6.57092        0.66136       -0.97457
F          6.40407        1.20288        1.11183
C         -0.59615       -1.17296       -0.40792
C         -1.93694       -0.70679       -0.21720
C         -3.02794       -1.49271       -0.56662
C         -4.34929       -1.05107       -0.38622
C         -5.45643       -1.84817       -0.74063
C         -6.74857       -1.39280       -0.55406
C         -7.89692       -2.17667       -0.90319
F         -7.66405       -3.39117       -1.42750
C         -9.16710       -1.74464       -0.72648
C         -6.98862       -0.08626        0.01003
C         -8.34515        0.35170        0.18865
C         -9.38659       -0.44615       -0.16562
C         -5.90220        0.69877        0.35903
C         -4.57646        0.25505        0.17769
H         -3.64311        2.03277        0.95540
H         -1.19705        2.41315        1.14034
H          2.44490       -2.40849       -0.91017
H          4.87653       -1.96324       -0.68710
H          4.07277        1.93069        0.98526
H         -0.43332       -2.15909       -0.83381
H         -2.85720       -2.47890       -0.99240
H         -5.28922       -2.83267       -1.16569
H         -9.99801       -2.38089       -1.00906
H         -8.51971        1.33581        0.61363
H        -10.40804       -0.10639       -0.02683
H         -6.07266        1.68484        0.78485
