33
syn_C_S_diF_3-F.log	Energy: -919232.3923097
C         -2.40073        1.38319        0.30467
C         -3.60446        0.69778        0.42874
C         -4.85105        1.39173        0.52338
C         -6.00546        0.67919        0.64345
S         -7.64668        1.31101        0.77511
C         -5.99703       -0.75840        0.67698
C         -7.34609       -1.25875        0.80896
F         -7.57592       -2.57268        0.86060
C         -8.29950       -0.31622        0.87116
C         -4.82477       -1.45352        0.58922
C         -3.59106       -0.74921        0.46241
C         -2.37535       -1.41979        0.37020
C         -1.15886       -0.73185        0.24494
C          0.07485       -1.40972        0.15116
C          1.26195       -0.71242        0.02803
C          2.52546       -1.37908       -0.06881
F          2.54228       -2.71705       -0.03764
C          3.68187       -0.68135       -0.18938
F          4.85247       -1.32225       -0.27866
C          1.25904        0.73191       -0.00690
C          2.51088        1.42521       -0.13587
C          3.68173        0.74299       -0.22417
C          0.05101        1.40032        0.08496
C         -1.17258        0.70984        0.21119
H         -2.40853        2.47050        0.27909
H         -4.85485        2.47766        0.49775
H         -9.36360       -0.47696        0.96974
H         -4.82454       -2.53914        0.61521
H         -2.36597       -2.50694        0.39575
H          0.08870       -2.49455        0.17636
H          2.50505        2.51056       -0.16189
H          4.63640        1.24815       -0.32208
H          0.04100        2.48754        0.05941
