43
syn_C_O_3-Cl_p-OMebenz.log	Energy: -986423.5782154
C         -3.45835        1.08496        0.51810
C         -2.15210        0.63299        0.38816
C         -1.03627        1.45649        0.75591
C          0.20659        0.94327        0.59907
O          1.37579        1.58866        0.89814
C          0.46164       -0.37522        0.08662
C          1.91173       -0.50341        0.08985
C          2.80019       -1.50376       -0.27321
C          4.16999       -1.26564       -0.12800
O          4.98170       -2.29057       -0.50372
C          6.37398       -2.11515       -0.38297
C          2.39123        0.71316        0.58934
C          3.73741        0.96819        0.74042
C          4.63106       -0.04094        0.37409
C         -0.57565       -1.17998       -0.27065
C         -1.91893       -0.70085       -0.13117
C         -3.00479       -1.49131       -0.48478
C         -4.32816       -1.03643       -0.35440
C         -5.42881       -1.84006       -0.71393
C         -6.73001       -1.38670       -0.58351
C         -7.89045       -2.16628       -0.93581
Cl        -7.66962       -3.78436       -1.56773
C         -9.15312       -1.68769       -0.79398
C         -6.96727       -0.05662       -0.06597
C         -8.31602        0.41405        0.06945
C         -9.36661       -0.37068       -0.28079
C         -5.88794        0.73627        0.28860
C         -4.55967        0.28693        0.16076
H         -3.63799        2.08452        0.90712
H         -1.19458        2.45613        1.14583
H          2.46720       -2.45933       -0.66393
H          6.82536       -3.04388       -0.73391
H          6.67094       -1.94167        0.65978
H          6.73222       -1.28333       -1.00374
H          4.09101        1.91644        1.12896
H          5.69281        0.14327        0.48651
H         -0.40748       -2.18009       -0.66041
H         -2.82892       -2.49150       -0.87422
H         -5.24102       -2.83620       -1.10118
H        -10.00094       -2.30475       -1.07011
H         -8.47601        1.41518        0.45977
H        -10.38496       -0.01017       -0.17651
H         -6.07027        1.73556        0.67735
