41
syn_S_NPh_diF_3-F.log	Energy: -1050319.1617555
C         -1.03063        1.03866        0.80603
C         -2.05157        0.10403        0.59126
C         -3.41862        0.45435        0.76563
C         -4.37337       -0.50337        0.54810
N         -5.75912       -0.43597        0.62592
C         -6.53518        0.68620        0.99367
C         -6.21184        1.41963        2.13673
C         -6.98331        2.52067        2.49114
C         -8.09055        2.88111        1.72775
C         -8.41947        2.13694        0.59813
C         -7.64006        1.04851        0.22200
C         -4.02365       -1.83254        0.11959
C         -5.27488       -2.51544       -0.05398
F         -5.39161       -3.78855       -0.43594
C         -6.28635       -1.67101        0.24499
C         -2.71377       -2.19344       -0.05351
C         -1.69214       -1.23574        0.18535
C         -0.33863       -1.55664        0.02617
C          0.67387       -0.62405        0.24389
C          2.04974       -0.95910        0.07993
C          3.01212       -0.01530        0.30150
C          4.44561       -0.14055        0.19453
F          5.02965       -1.28550       -0.16101
C          5.10116        0.99448        0.48555
F          6.41200        1.17563        0.47213
C          2.64709        1.31789        0.69997
S          4.06495        2.34995        0.92335
C          1.34550        1.67921        0.86810
C          0.31473        0.71482        0.64457
H         -1.29820        2.04859        1.10890
H         -3.67963        1.46692        1.05518
H         -5.37131        1.11252        2.75053
H         -6.72624        3.08838        3.38020
H         -8.69499        3.73638        2.01273
H         -9.27878        2.41275       -0.00541
H         -7.87358        0.48616       -0.67704
H         -7.35203       -1.84296        0.25549
H         -2.45052       -3.19567       -0.37806
H         -0.07047       -2.56584       -0.27830
H          2.32617       -1.96521       -0.22106
H          1.07151        2.68642        1.16892
