57
syn_S_NPh_m-OMebenz_benz.log	Energy: -1128194.9077905
C         -3.68972       -1.35994        0.98796
C         -4.74183       -0.83806        0.22945
C         -6.09881       -1.18426        0.50101
C         -7.08087       -0.63667       -0.27374
N         -8.46175       -0.82248       -0.22195
C         -9.14477       -1.64109        0.70882
C         -8.97922       -1.42716        2.07775
C         -9.64326       -2.24040        2.98965
C        -10.48902       -3.25221        2.54231
C        -10.66037       -3.45647        1.17571
C         -9.98210       -2.66190        0.25756
C         -6.78746        0.26018       -1.36117
C         -8.06408        0.60843       -1.96429
C         -8.42153        1.43295       -3.02667
C         -9.76668        1.57085       -3.35061
C         -9.05873       -0.07463       -1.23890
C        -10.40894        0.06552       -1.54699
C        -10.74415        0.89483       -2.61269
C         -5.49612        0.60367       -1.63760
C         -4.43449        0.06920       -0.84928
C         -3.10075        0.40019       -1.10076
C         -2.05270       -0.12133       -0.34060
C         -0.69301        0.21954       -0.60071
C          0.31617       -0.30484        0.15736
C          1.75413       -0.08572        0.05576
C          2.46053        0.71839       -0.84534
C          3.83779        0.79452       -0.77897
C          2.47582       -0.80309        1.01618
C          3.86575       -0.74240        1.10286
C          4.54455        0.06620        0.19302
O          5.89113        0.21704        0.16458
C          6.65925       -0.48741        1.11427
C         -0.00492       -1.21069        1.22802
S          1.44246       -1.76620        2.07393
C         -1.28848       -1.56535        1.51391
C         -2.35803       -1.02838        0.73423
H         -3.91683       -2.04593        1.80116
H         -6.32552       -1.87455        1.30742
H         -8.33524       -0.62144        2.41608
H         -9.50902       -2.07288        4.05396
H        -11.01262       -3.87992        3.25666
H        -11.31382       -4.24740        0.82037
H        -10.08965       -2.82944       -0.80963
H         -7.65941        1.96289       -3.59093
H        -10.06178        2.20909       -4.17729
H        -11.17383       -0.44747       -0.97377
H        -11.79105        1.01981       -2.87300
H         -5.25946        1.27796       -2.45674
H         -2.87272        1.08502       -1.91498
H         -0.47423        0.90582       -1.41521
H          1.92694        1.28669       -1.60181
H          4.40288        1.41209       -1.46838
H          4.39030       -1.31232        1.86038
H          7.69860       -0.22492        0.91443
H          6.53308       -1.57255        1.00812
H          6.40160       -0.19104        2.13919
H         -1.51903       -2.25046        2.32491
