50
syn_S_NPh_tetClbenz_2-CF3.log	Energy: -2324954.8795534
C         -3.61198        1.10171        0.12158
C         -4.65558        0.16805        0.04233
C         -6.01516        0.57600        0.07120
C         -6.98147       -0.39083       -0.01199
N         -8.36208       -0.26155        0.00243
C         -9.05150        0.98537        0.04709
C         -8.96617        1.84815       -1.04399
C         -9.60983        3.07948       -0.99715
C        -10.34336        3.44132        0.13034
C        -10.42495        2.57422        1.21622
C         -9.77054        1.34707        1.18291
C         -6.67547       -1.79087       -0.12160
C         -7.93774       -2.48213       -0.18105
C         -8.90715       -1.53617       -0.10693
C        -10.38404       -1.76494       -0.13778
F        -10.98655       -1.01417       -1.07221
F        -10.64951       -3.04912       -0.40557
F        -10.96577       -1.47161        1.04038
C         -5.36595       -2.20045       -0.14917
C         -4.32692       -1.23563       -0.06937
C         -2.97832       -1.61523       -0.09509
C         -1.94791       -0.68174       -0.01603
C         -0.58047       -1.08850       -0.04318
C          0.43200       -0.16912        0.03507
C          1.89178       -0.34274        0.02769
C          2.68122       -1.49685       -0.06139
Cl         1.95278       -3.06654       -0.19152
C          4.07920       -1.41221       -0.04770
Cl         5.04001       -2.84640       -0.15793
C          2.55604        0.89469        0.13022
C          3.94201        0.99291        0.14478
Cl         4.67269        2.55723        0.27397
C          4.71373       -0.16493        0.05562
Cl         6.43674       -0.05664        0.07301
C          0.07929        1.22592        0.14574
S          1.48697        2.27817        0.23605
C         -1.20938        1.66006        0.17562
C         -2.27609        0.71464        0.09531
H         -3.85684        2.15793        0.20657
H         -6.26824        1.62797        0.15872
H         -8.40050        1.54425       -1.91919
H         -9.54600        3.75268       -1.84628
H        -10.85106        4.40034        0.16243
H        -10.99243        2.85576        2.09760
H         -9.81491        0.66772        2.02658
H         -8.09769       -3.54564       -0.27330
H         -5.11078       -3.25351       -0.22961
H         -2.73099       -2.67119       -0.17892
H         -0.37286       -2.14607       -0.12720
H         -1.44405        2.71730        0.26005
