40
syn_C_S_2-CF3_3-OMe.log	Energy: -1015762.6147514
C         -2.41976        1.34675        0.10799
C         -3.61903        0.67419        0.32026
C         -4.87549        1.35430        0.27271
C         -6.02461        0.65434        0.48676
S         -7.67089        1.27394        0.47741
C         -6.00351       -0.75672        0.76020
C         -7.34867       -1.27264        0.95150
O         -7.48370       -2.58757        1.21677
C         -8.80555       -3.05026        1.39434
C         -8.30820       -0.32900        0.83249
C         -4.82118       -1.43680        0.81292
C         -3.59172       -0.74601        0.59528
C         -2.36739       -1.40516        0.64113
C         -1.15604       -0.72995        0.42760
C          0.08890       -1.39289        0.47286
C          1.27671       -0.71675        0.26061
C          2.54551       -1.38646        0.30558
C          3.69773       -0.70168        0.09382
C          5.03227       -1.38719        0.13663
F          4.93376       -2.69848        0.40267
F          5.68198       -1.26223       -1.03584
F          5.82893       -0.84468        1.07654
C          1.25134        0.70017       -0.01436
C          2.50150        1.37648       -0.23115
C          3.67933        0.70764       -0.18032
C          0.03792        1.36164       -0.06135
C         -1.18269        0.68550        0.15324
H         -2.43881        2.41434       -0.09892
H         -4.89129        2.42053        0.06604
H         -8.73380       -4.11897        1.59680
H         -9.40325       -2.88604        0.48840
H         -9.28677       -2.54601        2.24233
H         -9.37717       -0.45392        0.92908
H         -4.81128       -2.50272        1.01995
H         -2.34744       -2.47275        0.84797
H          0.10926       -2.46050        0.67986
H          2.56681       -2.45156        0.51220
H          2.48320        2.44286       -0.43823
H          4.61824        1.22596       -0.34524
H          0.01757        2.42923       -0.26839
