53
syn_O_NPh_m-CF3benz_2-CF3.log	Energy: -1180170.9957164
C         -3.56052        0.94662        0.11713
C         -4.63982        0.05515        0.03055
C         -5.98280        0.51469        0.07171
C         -6.98623       -0.41280       -0.01941
N         -8.36172       -0.23107        0.00397
C         -9.00248        1.04044        0.06359
C         -8.87666        1.91564       -1.01375
C         -9.47214        3.17031       -0.95239
C        -10.19881        3.54387        0.17570
C        -10.32125        2.66452        1.24777
C         -9.71453        1.41356        1.20020
C         -6.73475       -1.82159       -0.14850
C         -8.02285       -2.46343       -0.21028
C         -8.95547       -1.48256       -0.11917
C        -10.43961       -1.65556       -0.14721
F        -11.01770       -0.87018       -1.06879
F        -10.75436       -2.92525       -0.43149
F        -11.00705       -1.35744        1.03706
C         -5.44179       -2.28049       -0.18819
C         -4.36632       -1.35741       -0.10140
C         -3.03258       -1.78583       -0.13915
C         -1.96422       -0.89706       -0.05309
C         -0.61054       -1.35680       -0.09288
C          0.40491       -0.45218       -0.00441
C          1.85782       -0.52688       -0.00684
C          2.79276       -1.55401       -0.09695
C          4.14346       -1.23148       -0.05797
C          2.29880        0.79530        0.11969
C          3.63572        1.14437        0.16106
C          4.55396        0.10067        0.06975
C          6.02783        0.40701        0.05201
F          6.73024       -0.49775        0.75540
F          6.51770        0.39082       -1.20087
F          6.29953        1.61698        0.56663
C          0.10883        0.94414        0.12680
O          1.26358        1.68461        0.20080
C         -1.14870        1.44470        0.17030
C         -2.23743        0.51715        0.07976
H         -3.76678        2.00973        0.21761
H         -6.19431        1.57449        0.17461
H         -8.31702        1.60311       -1.88978
H         -9.37618        3.85301       -1.79089
H        -10.66894        4.52144        0.21914
H        -10.88319        2.95483        2.12989
H         -9.79077        0.72426        2.03342
H         -8.22356       -3.51885       -0.31541
H         -5.22781       -3.34158       -0.28345
H         -2.82674       -2.84952       -0.23852
H         -0.41372       -2.42076       -0.19276
H          2.47622       -2.58770       -0.19231
H          4.89013       -2.01534       -0.12054
H          3.94790        2.17616        0.26404
H         -1.33584        2.50832        0.27068
