50
syn_C_NPh_benz_3-Cl.log	Energy: -1047059.5380846
C         -2.15867        1.23772        0.78835
C         -3.37298        0.54846        0.71816
C         -4.61753        1.22868        0.84562
C         -5.77187        0.50020        0.76137
N         -7.10248        0.89809        0.86625
C         -7.58254        2.21360        1.06517
C         -7.11038        3.26019        0.27164
C         -7.59255        4.54864        0.47296
C         -8.55962        4.79578        1.44389
C         -9.03847        3.74603        2.22268
C         -8.54518        2.45804        2.04496
C         -5.76040       -0.92801        0.57846
C         -7.14346       -1.33254        0.59108
Cl        -7.71480       -2.94985        0.39530
C         -7.90731       -0.22822        0.76805
C         -4.57698       -1.60304        0.45237
C         -3.35148       -0.88357        0.51206
C         -2.11931       -1.53241        0.38516
C         -0.90981       -0.83893        0.45381
C          0.34274       -1.49640        0.32510
C          1.53977       -0.82293        0.39251
C          2.84454       -1.49043        0.26084
C          2.97242       -2.87453        0.05470
C          4.21296       -3.47451       -0.06568
C          4.02606       -0.71880        0.34310
C          5.27825       -1.34327        0.21883
C          5.37822       -2.70590        0.01645
C          1.51066        0.60914        0.60289
C          2.75870        1.33710        0.67731
C          3.94344        0.71159        0.55491
C          0.30876        1.26603        0.73001
C         -0.93173        0.58332        0.66209
H         -2.17012        2.31412        0.94544
H         -4.62817        2.30049        1.01515
H         -6.38390        3.05620       -0.50818
H         -7.22145        5.36008       -0.14554
H         -8.93903        5.80184        1.59203
H         -9.78912        3.93053        2.98500
H         -8.89024        1.64218        2.67294
H         -8.98309       -0.13489        0.80554
H         -4.56410       -2.68068        0.31600
H         -2.10562       -2.60905        0.22963
H          0.31884       -2.57027        0.16879
H          2.08858       -3.49934       -0.01360
H          4.27801       -4.54673       -0.22449
H          6.17558       -0.73302        0.28474
H          6.35238       -3.17589       -0.07798
H          2.71258        2.41129        0.83602
H          4.87265        1.27242        0.61302
H          0.30434        2.34247        0.88785
