50
syn_C_NPh_2-Cl_tetFbenz.log	Energy: -1296063.4600915
C         -3.46666        1.31408       -0.03673
C         -2.16585        0.82405       -0.03411
C         -1.03915        1.70079        0.06305
C          0.20933        1.15775        0.06505
N          1.45180        1.79324        0.14164
C          1.62835        3.20382        0.17257
C          1.11156        3.93348        1.24132
C          1.25199        5.31726        1.26115
C          1.92030        5.96716        0.22721
C          2.44119        5.23132       -0.83431
C          2.28698        3.85049       -0.87087
C          0.42782       -0.26259       -0.04598
C          1.86689       -0.44909       -0.04125
C          2.66762       -1.57805       -0.10878
F          2.12245       -2.79242       -0.21392
C          4.04760       -1.45014       -0.06538
F          4.83603       -2.52303       -0.13297
C          2.45017        0.82938        0.07150
C          3.83338        0.96203        0.13239
F          4.43399        2.14882        0.26342
C          4.61817       -0.18261        0.05455
F          5.94277       -0.07019        0.10240
C         -0.62425       -1.12293       -0.13924
C         -1.95756       -0.60635       -0.13223
C         -3.05742       -1.45114       -0.22368
C         -4.37270       -0.95862       -0.22531
C         -5.49183       -1.81143       -0.31818
C         -6.78364       -1.31353       -0.31971
C         -7.92648       -2.17761       -0.41437
C         -9.17605       -1.65057       -0.41288
Cl       -10.57337       -2.69495       -0.52837
C         -6.99367        0.11114       -0.22410
C         -8.34297        0.60327       -0.22787
C         -9.40262       -0.24007       -0.31864
C         -5.90265        0.95766       -0.13243
C         -4.58143        0.46424       -0.12971
H         -3.62903        2.38714        0.03514
H         -1.19558        2.77253        0.12997
H          0.60900        3.41140        2.04965
H          0.84893        5.88596        2.09334
H          2.03639        7.04624        0.24874
H          2.96176        5.73449       -1.64305
H          2.67574        3.26920       -1.70077
H         -0.46503       -2.19281       -0.22441
H         -2.89637       -2.52434       -0.29716
H         -5.33083       -2.88464       -0.39026
H         -7.77625       -3.25000       -0.48673
H         -8.50453        1.67531       -0.15610
H        -10.42080        0.13281       -0.32149
H         -6.06327        2.03108       -0.06069
