42
syn_S_S_tetFbenz_tetClbenz.log	Energy: -2529094.6088867
C         -3.20628       -0.94660        2.02555
C         -4.33619       -0.54607        1.30993
C         -5.65241       -0.67862        1.83861
C         -6.71983       -0.27115        1.09698
S         -8.39386       -0.37505        1.62408
C         -6.58254        0.29726       -0.21995
C         -7.89612        0.64393       -0.78161
C         -8.24980        1.21138       -2.01313
Cl        -7.03784        1.63051       -3.18155
C         -9.59198        1.45334       -2.33039
Cl       -10.01409        2.15403       -3.85403
C         -8.93501        0.32974        0.11464
C        -10.27111        0.56468       -0.18724
Cl       -11.48223        0.14694        0.97645
C        -10.60717        1.13000       -1.41638
Cl       -12.26237        1.42701       -1.80470
C         -5.32118        0.43052       -0.74052
C         -4.17513        0.01845       -0.00077
C         -2.88930        0.15401       -0.52939
C         -1.75788       -0.24534        0.18412
C         -0.44885       -0.10364       -0.36149
C          0.64472       -0.50207        0.35669
C          2.05676       -0.44912       -0.00479
C          2.65082        0.02058       -1.17176
F          1.91007        0.51584       -2.16754
C          4.02906       -0.01521       -1.32723
F          4.59141        0.43527       -2.44506
C          2.88202       -0.95915        1.01098
C          4.25837       -0.99748        0.86168
F          5.03648       -1.48273        1.82959
C          4.83422       -0.52491       -0.30990
F          6.15249       -0.55514       -0.46887
C          0.46861       -1.06669        1.66864
S          2.00052       -1.51546        2.42476
C         -0.76439       -1.21963        2.22663
C         -1.92119       -0.81110        1.49714
H         -3.33014       -1.37393        3.01772
H         -5.78649       -1.10398        2.82892
H         -5.16158        0.85068       -1.72350
H         -2.76603        0.58158       -1.52164
H         -0.33409        0.32348       -1.35123
H         -0.88744       -1.64691        3.21743
