44
syn_C_C_3-CN_p-CNbenz.log	Energy: -743295.6879836
C         -1.92121       -1.14551        2.07924
C         -3.03460       -0.44363        1.62628
C         -4.28612       -0.48593        2.29579
C         -5.37799        0.21120        1.83992
C         -6.63891        0.14596        2.54635
C         -7.72151        0.82055        2.11912
C         -5.27860        1.02211        0.64284
C         -6.47375        1.75323        0.19084
C         -6.47115        2.56112       -0.95340
C         -7.61553        3.24035       -1.35554
C         -7.57558        4.06022       -2.53441
N         -7.54490        4.72243       -3.48543
C         -7.67460        1.64493        0.92996
C         -8.82188        2.33859        0.50862
C         -8.80607        3.13043       -0.61888
C         -4.07555        1.07330       -0.01633
C         -2.92948        0.36053        0.43490
C         -1.71476        0.42068       -0.24271
C         -0.58883       -0.28392        0.20775
C          0.64592       -0.22712       -0.47485
C          1.74958       -0.92442       -0.02326
C          3.02963       -0.88763       -0.69955
C          3.16824       -0.09764       -1.88906
N          3.26299        0.54576       -2.84926
C          4.10147       -1.58972       -0.22534
C          1.64772       -1.73028        1.17027
C          2.80496       -2.44806        1.62521
C          3.98578       -2.38188        0.95579
C          0.44271       -1.79327        1.84678
C         -0.69510       -1.08830        1.40078
H         -2.00193       -1.75181        2.97848
H         -4.37598       -1.09010        3.19566
H         -6.68892       -0.46890        3.44084
H         -8.66074        0.76059        2.66167
H         -5.57492        2.67469       -1.55154
H         -9.73518        2.24342        1.08899
H         -9.69340        3.66433       -0.94068
H         -3.95741        1.66796       -0.91639
H         -1.63309        1.02667       -1.14192
H          0.72118        0.38010       -1.37324
H          5.04890       -1.54419       -0.75197
H          2.71463       -3.05076        2.52486
H          4.85271       -2.92925        1.31022
H          0.36668       -2.40059        2.74572
