54
syn_NPh_NPh_C_diCN.log	Energy: -909103.2783302
C          0.53773       -0.97802        0.09585
C          1.75103       -0.28310        0.12108
C          2.99641       -0.96682        0.04466
C          4.14405       -0.22352        0.07129
N          5.47553       -0.63445        0.02394
C          5.92548       -1.97823       -0.11058
C          5.49990       -2.73316       -1.20235
C          5.92960       -4.04881       -1.33165
C          6.79322       -4.59961       -0.38792
C          7.22081       -3.83526        0.69386
C          6.77947       -2.52491        0.84404
C          4.13140        1.20494        0.18965
C          5.51365        1.62333        0.21221
C          5.99032        2.95433        0.31382
N          6.34221        4.05654        0.39937
C          6.27795        0.48533        0.10990
C          7.69784        0.39713        0.06885
N          8.85477        0.33496        0.04303
C          2.94469        1.88633        0.26562
C          1.72545        1.15986        0.22873
C          0.48874        1.81083        0.29872
C         -0.72049        1.11587        0.27049
C         -1.97041        1.79644        0.33067
C         -3.13767        1.08160        0.30362
C         -4.53378        1.45100        0.32350
C         -5.24666        0.30186        0.25717
C         -3.09351       -0.35912        0.22379
N         -4.40967       -0.80707        0.20371
C         -4.84848       -2.14891        0.12790
C         -4.30600       -3.11563        0.97641
C         -4.74986       -4.43082        0.89670
C         -5.74786       -4.78461       -0.00768
C         -6.29647       -3.81477       -0.84209
C         -5.84262       -2.50144       -0.78554
C         -1.91970       -1.05549        0.14344
C         -0.69561       -0.32745        0.16859
H          0.55604       -2.06280        0.01718
H          3.01860       -2.04942       -0.02779
H          4.84552       -2.28384       -1.94264
H          5.59981       -4.63940       -2.18048
H          7.13461       -5.62410       -0.49717
H          7.89393       -4.26036        1.43127
H          7.09297       -1.92850        1.69475
H          2.92887        2.96869        0.35729
H          0.47133        2.89560        0.37706
H         -1.98107        2.88148        0.38892
H         -4.93736        2.45062        0.39010
H         -6.31745        0.15099        0.26956
H         -3.55372       -2.82803        1.70374
H         -4.32392       -5.17899        1.55826
H         -6.09682       -5.81102       -0.06110
H         -7.07167       -4.08250       -1.55352
H         -6.24351       -1.74871       -1.45765
H         -1.89848       -2.13666        0.05206
