51
syn_O_NPh_2-CF3_p-CNbenz.log	Energy: -1026590.8694160
C         -3.41515        1.38651       -0.27315
C         -2.11707        0.88086       -0.19384
C         -0.98552        1.74677       -0.09879
C          0.25551        1.18777       -0.02073
N          1.50443        1.80788        0.06646
C          1.72256        3.20895        0.11225
C          1.15436        3.96550        1.13673
C          1.36229        5.34007        1.17347
C          2.15013        5.95636        0.20447
C          2.72257        5.19551       -0.81144
C          2.50182        3.82331       -0.86738
C          0.46124       -0.23664       -0.04566
C          1.89916       -0.44307        0.03225
C          2.69217       -1.57881        0.05750
C          4.07968       -1.42761        0.15435
C          4.92265       -2.58796        0.17930
N          5.60394       -3.52639        0.19879
C          2.49283        0.83574        0.09889
C          3.87351        0.99567        0.20656
C          4.65694       -0.14755        0.23146
C         -0.60390       -1.08286       -0.13629
C         -1.92632       -0.55003       -0.20973
C         -3.04089       -1.38271       -0.30105
C         -4.34333       -0.87809       -0.37933
C         -5.46801       -1.74798       -0.47184
C         -6.72353       -1.20783       -0.54670
C         -8.06849       -1.73459       -0.64743
C         -8.87388       -0.65843       -0.68195
C        -10.36114       -0.56291       -0.78062
F        -10.89304       -1.79063       -0.83780
F        -10.88358        0.07106        0.27740
F        -10.73853        0.10848       -1.87653
C         -6.88247        0.21155       -0.53108
O         -8.21061        0.53191       -0.61499
C         -5.85364        1.09398       -0.44502
C         -4.53492        0.55417       -0.36546
H         -3.56195        2.46402       -0.26312
H         -1.12906        2.82259       -0.09466
H          0.55874        3.47067        1.89754
H          0.91723        5.92873        1.96961
H          2.31712        7.02829        0.24072
H          3.33270        5.67218       -1.57233
H          2.92305        3.22368       -1.66849
H          2.25474       -2.57060        0.00643
H          4.32282        1.98019        0.27379
H          5.73503       -0.05998        0.31403
H         -0.46510       -2.16060       -0.15812
H         -2.89363       -2.46048       -0.31256
H         -5.31298       -2.82298       -0.48150
H         -8.37763       -2.76799       -0.68746
H         -6.01823        2.16589       -0.43652
