43
syn_C_S_3-OMe_diCF3.log	Energy: -1227199.2876877
C         -2.36528        1.23456       -1.25982
C         -3.52873        1.14803       -0.50036
C         -4.68035        1.93530       -0.80176
C         -5.79396        1.81280       -0.02564
S         -7.30452        2.68328       -0.21987
C         -5.85247        0.91218        1.09289
C         -7.14908        0.97440        1.74883
C         -7.42750        0.11074        2.94575
F         -7.27178       -1.18837        2.63322
F         -6.55538        0.38173        3.93330
F         -8.65645        0.25979        3.44205
C         -7.99061        1.85689        1.16341
C         -9.40947        2.21299        1.53944
F         -9.88528        3.14730        0.69768
F        -10.22526        1.15703        1.46423
F         -9.48614        2.71489        2.77576
C         -4.76013        0.14544        1.40309
C         -3.57321        0.23933        0.62267
C         -2.44888       -0.52854        0.91950
C         -1.27649       -0.44276        0.15768
C         -0.13456       -1.21962        0.45778
C          1.01495       -1.12643       -0.29974
C          2.19031       -1.91912        0.00212
O          2.04560       -2.73438        1.07186
C          3.14154       -3.54279        1.43799
C          3.31661       -1.81211       -0.75931
C          1.06689       -0.22207       -1.42484
C          2.27577       -0.14424       -2.19780
C          3.34659       -0.90949       -1.87080
C         -0.04645        0.54156       -1.72484
C         -1.23242        0.46267       -0.96297
H         -2.33174        1.91801       -2.10515
H         -4.64922        2.61948       -1.64462
H         -4.78060       -0.54100        2.24268
H         -2.48116       -1.21223        1.76461
H         -0.16479       -1.90155        1.30095
H          4.01398       -2.93271        1.70349
H          3.41365       -4.23290        0.62956
H          2.81820       -4.11305        2.30921
H          4.20060       -2.39971       -0.54242
H          2.31122        0.53645       -3.04318
H          4.25872       -0.84835       -2.45691
H         -0.01110        1.22376       -2.57110
