45
syn_S_S_tetFbenz_m-CF3benz.log	Energy: -1586985.6690321
C         -3.52448        1.23807       -0.05937
C         -4.58634        0.33087       -0.04630
C         -5.94449        0.76820       -0.06675
C         -6.94679       -0.15511       -0.05310
S         -8.67660        0.18783       -0.07417
C         -6.67713       -1.56706       -0.01824
C         -7.90999       -2.34755       -0.00930
C         -8.06195       -3.73536        0.01896
C         -9.33132       -4.28925        0.01973
C         -9.05277       -1.53391       -0.03656
C        -10.33226       -2.07874       -0.03532
C        -10.45895       -3.46150       -0.00748
C        -11.82287       -4.09643        0.03945
F        -11.90595       -5.14409       -0.79858
F        -12.10476       -4.56000        1.27002
F        -12.79629       -3.23451       -0.29354
C         -5.38335       -2.00737        0.00189
C         -4.30191       -1.07976       -0.01132
C         -2.97179       -1.50480        0.00878
C         -1.91057       -0.59766       -0.00424
C         -0.55572       -1.03935        0.01639
C          0.46677       -0.13093        0.00289
C          1.90693       -0.36094        0.01911
C          2.60728       -1.56247        0.05233
F          1.96208       -2.73269        0.07455
C          3.99459       -1.57224        0.06316
F          4.65859       -2.72444        0.09507
C          2.63479        0.84043       -0.00331
C          4.01973        0.83694        0.00733
F          4.70539        1.98044       -0.01407
C          4.70213       -0.37163        0.04063
F          6.03036       -0.39197        0.05117
C          0.16927        1.27650       -0.03218
S          1.62543        2.27708       -0.04450
C         -1.11092        1.74059       -0.05270
C         -2.19527        0.81225       -0.03931
H         -3.73907        2.30382       -0.08581
H         -6.15623        1.83311       -0.09300
H         -7.18901       -4.38062        0.03744
H         -9.45579       -5.36658        0.03633
H        -11.21182       -1.44569       -0.05939
H         -5.15916       -3.07065        0.02833
H         -2.75617       -2.57050        0.03521
H         -0.34885       -2.10321        0.04283
H         -1.32621        2.80477       -0.07910
