68
syn_NPh_NPh_tetFbenz_p-OMebenz.log	Energy: -1306999.0628700
C         -3.23295        0.16634        0.66586
C         -4.40387        0.39575       -0.06116
C         -5.68521        0.04614        0.46024
C         -6.79319        0.29992       -0.29735
N         -8.13404        0.04341       -0.02494
C         -8.63565       -0.54184        1.15997
C         -8.33124        0.02116        2.40041
C         -8.81840       -0.56369        3.56419
C         -9.62740       -1.69507        3.49689
C         -9.93891       -2.24831        2.25769
C         -9.43672       -1.68278        1.09062
C         -6.70240        0.89007       -1.60901
C         -8.06256        0.97869       -2.11842
C         -8.59313        1.46632       -3.30248
C         -9.97604        1.42848       -3.49053
O        -10.41997        1.92162       -4.68081
C        -11.80637        1.91941       -4.92183
C         -8.90566        0.44987       -1.12255
C        -10.28031        0.42113       -1.29636
C        -10.80960        0.91239       -2.49065
C         -5.48829        1.23174       -2.12662
C         -4.30231        0.99966       -1.36795
C         -3.04257        1.33879       -1.86250
C         -1.87284        1.11055       -1.13328
C         -0.59463        1.46940       -1.65043
C          0.52324        1.22546       -0.90499
C          1.93619        1.47368       -1.11930
C          2.64422        2.02757       -2.17411
F          2.00767        2.47120       -3.26165
C          4.02566        2.12252       -2.10602
F          4.72480        2.65619       -3.10876
C          2.61713        1.00636        0.02383
C          4.00483        1.08336        0.08923
F          4.69892        0.63141        1.13899
C          4.69394        1.65007       -0.97607
F          6.02117        1.73838       -0.92306
C          0.41752        0.60769        0.38777
N          1.70225        0.48040        0.92699
C          1.97779       -0.01243        2.23107
C          1.62157       -1.31985        2.55678
C          1.85842       -1.79828        3.84122
C          2.46409       -0.98084        4.79147
C          2.82462        0.32233        4.45782
C          2.57233        0.81376        3.18244
C         -0.78527        0.25928        0.92935
C         -1.97001        0.50323        0.17175
H         -3.30696       -0.29027        1.65040
H         -5.75750       -0.41686        1.43924
H         -7.72030        0.91743        2.44217
H         -8.57587       -0.12359        4.52672
H        -10.01345       -2.14400        4.40678
H        -10.56407       -3.13408        2.19787
H         -9.65276       -2.12309        0.12212
H         -7.96532        1.88004       -4.08495
H        -11.94063        2.35130       -5.91449
H        -12.34691        2.53121       -4.18715
H        -12.21794        0.90115       -4.91396
H        -10.93950        0.03451       -0.52645
H        -11.88451        0.88847       -2.62639
H         -5.40643        1.67548       -3.11557
H         -2.96789        1.79532       -2.84729
H         -0.52230        1.93668       -2.62721
H          1.16660       -1.95187        1.80047
H          1.58001       -2.81652        4.09452
H          2.65608       -1.35878        5.79084
H          3.29566        0.96377        5.19610
H          2.83527        1.83262        2.91703
H         -0.85807       -0.19135        1.91397
