56
syn_S_NPh_p-CF3benz_tetFbenz.log	Energy: -1516792.3394420
C         -4.05028       -1.98608        0.96285
C         -4.95368       -1.16582        0.28046
C         -6.36284       -1.33882        0.41767
C         -7.19107       -0.50162       -0.27187
N         -8.58696       -0.47221       -0.31021
C         -9.42705       -1.39830        0.36734
C         -9.39210       -1.46031        1.75897
C        -10.18725       -2.38630        2.42620
C        -11.02580       -3.23411        1.70778
C        -11.06176       -3.16167        0.31741
C        -10.25505       -2.25276       -0.35712
C         -6.68655        0.52810       -1.13875
C         -7.84989        1.17841       -1.71066
C         -7.99587        2.23596       -2.59488
F         -6.92404        2.85142       -3.10045
C         -9.26369        2.66234       -2.95824
F         -9.42666        3.67500       -3.80977
C         -8.98640        0.53494       -1.17987
C        -10.26123        0.96937       -1.52902
F        -11.36918        0.40793       -1.03560
C        -10.38465        2.02607       -2.42288
F        -11.59707        2.44731       -2.77260
C         -5.34243        0.71469       -1.28726
C         -4.43703       -0.12650       -0.57697
C         -3.05429        0.03127       -0.69817
C         -2.15564       -0.78866       -0.01429
C         -0.74576       -0.62389       -0.14123
C          0.11357       -1.44018        0.53855
C          1.57289       -1.43554        0.54279
C          2.43674       -0.58859       -0.14892
C          3.80831       -0.74611       -0.00579
C          4.75521        0.12307       -0.78593
F          5.21404       -0.50641       -1.88319
F          4.17289        1.26090       -1.19951
F          5.83171        0.46287       -0.05565
C          2.10730       -2.43441        1.37184
C          3.48292       -2.59543        1.51739
C          4.33000       -1.74505        0.82296
C         -0.41271       -2.47352        1.38843
S          0.87045       -3.40464        2.16604
C         -1.75231       -2.66854        1.54053
C         -2.66933       -1.82719        0.83997
H         -4.43614       -2.77143        1.60874
H         -6.75065       -2.12475        1.05759
H         -8.74720       -0.78030        2.30693
H        -10.15977       -2.43535        3.51028
H        -11.65201       -3.95022        2.23067
H        -11.71338       -3.82180       -0.24635
H        -10.26439       -2.19798       -1.44093
H         -4.95561        1.48950       -1.94099
H         -2.66824        0.81575       -1.34531
H         -0.36814        0.16317       -0.78915
H          2.04312        0.19204       -0.79105
H          3.88886       -3.36738        2.16274
H          5.40455       -1.85048        0.92741
H         -2.14093       -3.45207        2.18460
