46
syn_O_O_tetClbenz_p-OMebenz.log	Energy: -1946588.2248158
C         -2.87947       -1.93060        0.85730
C         -3.92399       -1.05605        0.54945
C         -5.29044       -1.44384        0.71244
C         -6.24686       -0.53624        0.39139
O         -7.59517       -0.74018        0.48659
C         -5.95609        0.77915       -0.09848
C         -7.25702        1.39730       -0.30748
C         -7.68485        2.63671       -0.75852
C         -9.05872        2.88366       -0.82888
O         -9.40535        4.11907       -1.27960
C        -10.77529        4.43323       -1.37471
C         -8.19292        0.42553        0.06522
C         -9.55199        0.64846        0.00351
C         -9.98075        1.89732       -0.45087
C         -4.66134        1.17316       -0.26274
C         -3.60706        0.26358        0.05780
C         -2.26775        0.62460       -0.09449
C         -1.22294       -0.25043        0.21383
C          0.13853        0.14456        0.04924
C          1.13156       -0.74050        0.36237
C          2.58747       -0.72870        0.33840
C          3.56859        0.19137       -0.01371
Cl         3.10266        1.75781       -0.58566
C          4.91778       -0.16270        0.09948
Cl         6.14584        0.97507       -0.33552
C          2.97488       -1.99085        0.79888
C          4.29950       -2.37514        0.92331
Cl         4.67744       -3.95530        1.50146
C          5.27905       -1.44132        0.56631
Cl         6.94502       -1.87365        0.70440
C          0.78878       -2.04174        0.84722
O          1.91894       -2.78351        1.10545
C         -0.48182       -2.47611        1.02496
C         -1.53964       -1.56895        0.70490
H         -3.11746       -2.92482        1.22761
H         -5.54483       -2.43173        1.08084
H         -6.99092        3.41545       -1.05634
H        -10.82342        5.45533       -1.75205
H        -11.26975        4.38710       -0.39550
H        -11.29561        3.76601       -2.07439
H        -10.26242       -0.11611        0.29654
H        -11.04558        2.08969       -0.50553
H         -4.41497        2.16472       -0.63227
H         -2.02881        1.61898       -0.46491
H          0.36194        1.13885       -0.32075
H         -0.69556       -3.47253        1.39562
