33
syn_C_S_2-Cl_diCl.log	Energy: -1597646.4454544
C         -2.64159        0.89977       -0.73253
C         -3.79238        0.51195       -0.05630
C         -5.07586        1.03958       -0.40124
C         -6.17417        0.62997        0.28967
S         -7.83686        1.15124        0.02875
C         -6.08203       -0.32452        1.36420
C         -7.39004       -0.58932        1.93223
Cl        -7.61925       -1.68931        3.23920
C         -8.37990        0.10625        1.33525
Cl       -10.04715        0.06135        1.72403
C         -4.87015       -0.84595        1.71614
C         -3.68942       -0.44729        1.02097
C         -2.44080       -0.96039        1.35604
C         -1.27551       -0.57222        0.67640
C         -0.00630       -1.08900        1.01166
C          1.13615       -0.69908        0.33484
C          2.42985       -1.22270        0.67327
C          3.52595       -0.81569       -0.01358
Cl         5.10411       -1.44707        0.39135
C          1.03236        0.25873       -0.74036
C          2.23283        0.64707       -1.42704
C          3.44074        0.13334       -1.08269
C         -0.20658        0.77281       -1.07868
C         -1.37918        0.38440       -0.39747
H         -2.71792        1.62124       -1.54280
H         -5.15147        1.75991       -1.21061
H         -4.79543       -1.56612        2.52573
H         -2.36370       -1.68171        2.16623
H          0.07051       -1.81035        1.82182
H          2.51641       -1.94304        1.48032
H          2.15809        1.36762       -2.23671
H          4.34621        0.42717       -1.60173
H         -0.28343        1.49433       -1.88892
