48
syn_O_NPh_m-CNbenz_diF.log	Energy: -939646.2381303
C         -4.21714       -0.74030       -0.76189
C         -5.12583       -1.05199        0.25718
C         -6.52246       -1.13780       -0.00225
C         -7.35976       -1.45131        1.03129
N         -8.74701       -1.57962        1.05194
C         -9.62887       -1.51154       -0.05701
C         -9.36611       -2.27469       -1.19454
C        -10.21990       -2.19319       -2.28885
C        -11.34529       -1.37477       -2.24147
C        -11.61072       -0.62839       -1.09655
C        -10.74970       -0.68412       -0.00627
C         -6.87247       -1.67626        2.36861
C         -8.03277       -1.94260        3.17018
F         -8.03397       -2.20722        4.47747
C         -9.11094       -1.87725        2.35830
F        -10.38422       -2.06318        2.64336
C         -5.53337       -1.59577        2.64133
C         -4.62598       -1.28733        1.59098
C         -3.24814       -1.19894        1.81882
C         -2.34541       -0.89007        0.80231
C         -0.94214       -0.80503        1.05767
C         -0.09467       -0.49897        0.03387
C          1.34298       -0.32656       -0.09708
C          2.42678       -0.40603        0.77257
C          3.70175       -0.17055        0.27514
C          1.55841       -0.01306       -1.44629
C          2.81190        0.22661       -1.97284
C          3.88920        0.14186       -1.08192
C          5.21980        0.38046       -1.56871
N          6.29458        0.57227       -1.95834
C         -0.61506       -0.26684       -1.28000
O          0.39697        0.02562       -2.16330
C         -1.93240       -0.33195       -1.58825
C         -2.84606       -0.65176       -0.53256
H         -4.59568       -0.56135       -1.76565
H         -6.89874       -0.94947       -1.00257
H         -8.50181       -2.93092       -1.21171
H        -10.01149       -2.78397       -3.17541
H        -12.01468       -1.31993       -3.09413
H        -12.48605        0.01212       -1.05402
H        -10.93944       -0.08878        0.88034
H         -5.15973       -1.75964        3.64743
H         -2.87023       -1.37663        2.82328
H         -0.57280       -0.98536        2.06348
H          2.28237       -0.64722        1.82065
H          4.56492       -0.22537        0.92890
H          2.95631        0.46753       -3.01910
H         -2.29223       -0.14980       -2.59506
