56
syn_C_NPh_p-CF3benz_3-CF3.log	Energy: -1181380.1406939
C         -2.03544        1.69538        0.70994
C         -3.14964        0.84853        0.73455
C         -4.46275        1.36397        0.92000
C         -5.50868        0.48330        0.92789
N         -6.87362        0.70644        1.10221
C         -7.50901        1.95998        1.28997
C         -7.25346        3.01091        0.40911
C         -7.88566        4.23465        0.59899
C         -8.78543        4.40668        1.64787
C         -9.04609        3.35000        2.51577
C         -8.40172        2.12899        2.34732
C         -5.32428       -0.93511        0.78200
C         -6.64003       -1.52261        0.88548
C         -6.96814       -2.96306        0.78300
F         -6.59541       -3.47954       -0.40371
F         -6.33549       -3.68936        1.72478
F         -8.28768       -3.18029        0.92295
C         -7.52212       -0.50969        1.07822
C         -4.06906       -1.45194        0.60217
C         -2.95125       -0.57401        0.56777
C         -1.65222       -1.05985        0.38258
C         -0.54664       -0.21100        0.35605
C          0.77231       -0.70899        0.16648
C          1.84320        0.14401        0.14441
C          3.22044       -0.21696       -0.03673
C          5.26618       -5.19915        0.86852
C          4.46267       -4.13577        0.17656
C          2.98159       -4.03672        0.42142
F          2.41841       -5.21619        0.73186
F          2.69777       -3.18290        1.42657
F          2.33022       -3.56383       -0.66803
C          4.23686        0.66199       -0.04880
C          4.54501       -0.72292       -0.22930
C          5.04598       -5.39906       -0.38759
C          1.66006        1.57853        0.31613
C          2.81215        2.48296        0.29338
C          4.09599        2.07853        0.11749
C          0.39060        2.06864        0.49987
C         -0.74244        1.20664        0.52575
H         -2.18397        2.76526        0.83799
H         -4.60940        2.43025        1.05822
H         -6.57622        2.85929       -0.42529
H         -7.68520        5.05191       -0.08681
H         -9.28244        5.36134        1.78776
H         -9.74295        3.47835        3.33810
H         -8.57553        1.31044        3.03931
H         -8.59728       -0.55072        1.18136
H         -3.91560       -2.52105        0.49296
H         -1.50025       -2.12916        0.25713
H          0.93175       -1.77373        0.03751
H          5.71737       -5.49093        1.80245
H          4.88532       -3.15415       -0.05258
H          5.17635       -5.98239       -1.28406
H          2.59391        3.54052        0.42922
H          4.92702        2.77601        0.10637
H          0.23187        3.13703        0.63009
