48
syn_O_O_m-CF3benz_m-CF3benz.log	Energy: -1144078.3685404
C         -3.47193        0.86863        0.10734
C         -4.52478       -0.04804        0.07283
C         -5.88743        0.38426        0.10951
C         -6.85019       -0.56991        0.07236
O         -8.20165       -0.33573        0.09937
C         -6.57481       -1.97268       -0.00163
C         -7.88272       -2.60926       -0.02004
C         -8.34074       -3.92243       -0.07834
C         -9.71088       -4.15085       -0.07204
C         -8.80726       -1.56063        0.04311
C        -10.17518       -1.75908        0.05149
C        -10.61123       -3.08077       -0.00756
C        -12.08785       -3.37104       -0.06262
F        -12.40097       -4.48106        0.62694
F        -12.81896       -2.36348        0.44011
F        -12.50161       -3.56742       -1.32728
C         -5.28333       -2.41081       -0.03772
C         -4.22107       -1.45708       -0.00117
C         -2.88427       -1.85914       -0.03566
C         -1.83159       -0.94230       -0.00091
C         -0.47093       -1.37413       -0.03677
C          0.52560       -0.44314       -0.00054
C          1.97946       -0.48512       -0.01798
C          2.93706       -1.49385       -0.07479
C          4.27981       -1.13861       -0.06729
C          2.39057        0.85099        0.04465
C          3.71916        1.23264        0.05384
C          4.66017        0.20725       -0.00344
C          6.12600        0.54836       -0.05507
F          6.86227       -0.32221        0.65614
F          6.59275        0.51489       -1.31606
F          6.37569        1.77639        0.42647
C          0.19912        0.94860        0.07259
O          1.33448        1.71834        0.09963
C         -1.07115        1.42179        0.10925
C         -2.13503        0.46681        0.07279
H         -3.70060        1.93017        0.16294
H         -6.13260        1.43924        0.16522
H         -7.64440       -4.75354       -0.12454
H        -10.09158       -5.16534       -0.11084
H        -10.86728       -0.92791        0.10582
H         -5.04637       -3.46967       -0.09377
H         -2.65549       -2.92118       -0.09131
H         -0.25093       -2.43668       -0.09229
H          2.64402       -2.53778       -0.12061
H          5.04414       -1.90681       -0.10481
H          4.00840        2.27484        0.10765
H         -1.28205        2.48419        0.16452
