41
syn_O_NPh_diCl_C.log	Energy: -1237676.9489905
C          0.95490       -1.48251       -0.04638
C         -0.26356       -0.79540       -0.00073
C         -1.50518       -1.48995       -0.01197
C         -2.66088       -0.75928        0.04158
N         -3.98940       -1.17113        0.02680
C         -4.46559       -2.50162       -0.01119
C         -3.95286       -3.45825        0.86682
C         -4.43364       -4.76213        0.82402
C         -5.43917       -5.11390       -0.07277
C         -5.95803       -4.15367       -0.93680
C         -5.46720       -2.85265       -0.91710
C         -2.66439        0.68182        0.07910
C         -4.04899        1.09137        0.08023
C         -4.79471       -0.03864        0.04324
C         -1.47571        1.36418        0.09176
C         -0.24741        0.64764        0.05856
C          0.98505        1.30899        0.07264
C          2.19978        0.62375        0.02938
C          3.44496        1.32209        0.04512
C          4.60402        0.60257        0.00006
C          6.01526        0.92044       -0.00251
Cl         6.70456        2.48955        0.05797
C          6.66985       -0.25839       -0.06155
Cl         8.33536       -0.59729       -0.09500
C          4.56165       -0.82287       -0.06167
O          5.83890       -1.33397       -0.09884
C          3.41548       -1.54568       -0.07974
C          2.18245       -0.82159       -0.03334
H          0.94318       -2.56921       -0.09327
H         -1.51309       -2.57352       -0.07236
H         -3.19428       -3.17110        1.58774
H         -4.03029       -5.50247        1.50816
H         -5.81674       -6.13124       -0.09757
H         -6.73866       -4.42007       -1.64281
H         -5.84470       -2.10891       -1.61235
H         -4.42420        2.10361        0.11537
H         -5.86942       -0.15853        0.05423
H         -1.45629        2.45043        0.11818
H          0.99664        2.39586        0.11782
H          3.45717        2.40695        0.09218
H          3.42333       -2.62922       -0.12740
