54
syn_NPh_NPh_2-Cl_diCN.log	Energy: -1197491.9235879
C          0.49051       -0.98262        0.10381
C          1.70908       -0.29638        0.12583
C          2.94900       -0.98943        0.04826
C          4.10210       -0.25437        0.07121
N          5.43016       -0.67512        0.02211
C          5.86990       -2.02272       -0.10962
C          5.43922       -2.77631       -1.20026
C          5.85880       -4.09552       -1.32668
C          6.71740       -4.65110       -0.38117
C          7.15017       -3.88803        0.69944
C          6.71897       -2.57398        0.84672
C          4.10002        1.17436        0.18656
C          5.48530        1.58275        0.20550
C          5.97156        2.91053        0.30340
N          6.33119        4.01044        0.38599
C          6.24091        0.43889        0.10417
C          7.66005        0.33968        0.06096
N          8.81636        0.26821        0.03331
C          2.91851        1.86458        0.26356
C          1.69399        1.14674        0.23077
C          0.46232        1.80702        0.30301
C         -0.75218        1.12111        0.27886
C         -1.99592        1.81271        0.34916
C         -3.16859        1.10622        0.32592
C         -4.55957        1.48435        0.37290
C         -5.26850        0.33201        0.30805
Cl        -6.97546        0.14774        0.35839
C         -3.13140       -0.33178        0.23255
N         -4.44637       -0.78593        0.22100
C         -4.83705       -2.15068        0.14669
C         -4.48602       -3.01738        1.18035
C         -4.83917       -4.36013        1.10084
C         -5.55397       -4.83106        0.00240
C         -5.90674       -3.95907       -1.02428
C         -5.53979       -2.61913       -0.96126
C         -1.96756       -1.04123        0.15341
C         -0.73731       -0.32277        0.17739
H          0.50040       -2.06753        0.02644
H          2.96326       -2.07228       -0.02218
H          4.78900       -2.32333       -1.94200
H          5.52515       -4.68521       -2.17461
H          7.05092       -5.67841       -0.48819
H          7.81947       -4.31692        1.43812
H          7.03656       -1.97825        1.69638
H          2.91074        2.94719        0.35302
H          0.45333        2.89189        0.38064
H         -1.99731        2.89697        0.41761
H         -4.97061        2.47897        0.45393
H         -3.94244       -2.63130        2.03699
H         -4.56497       -5.03638        1.90452
H         -5.83574       -5.87793       -0.05374
H         -6.46079       -4.32384       -1.88349
H         -5.79223       -1.93345       -1.76355
H         -1.96352       -2.12374        0.07259
