44
syn_S_O_diOMe_diCF3.log	Energy: -1297648.2203584
C         -0.14507        1.38977        0.41730
C         -1.24022        0.52013        0.39147
C         -2.57736        1.01393        0.34689
C         -3.57579        0.09392        0.32606
O         -4.91929        0.36749        0.28947
C         -3.37040       -1.31500        0.34475
C         -4.70619       -1.88161        0.30531
C         -5.04850       -3.33581        0.34403
F         -4.04124       -4.06701       -0.16596
F         -5.25463       -3.76697        1.59687
F         -6.14746       -3.61623       -0.36803
C         -5.55368       -0.82930        0.29341
C         -7.05590       -0.74518        0.23227
F         -7.47736        0.40919        0.75324
F         -7.49364       -0.81305       -1.03057
F         -7.61491       -1.74550        0.91939
C         -2.09559       -1.81453        0.38291
C         -1.00069       -0.90477        0.41143
C          0.31950       -1.36800        0.45679
C          1.40942       -0.49925        0.48476
C          2.75128       -0.97904        0.53312
C          3.79570       -0.09708        0.56324
C          5.21382       -0.38705        0.62618
O          5.68354       -1.67204        0.69613
C          5.69586       -2.18791        2.02080
C          5.98057        0.73305        0.61670
O          7.30353        0.91643        0.65191
C          8.13863       -0.17385        0.27256
C          3.54288        1.31756        0.53000
S          5.04629        2.23377        0.53627
C          2.27870        1.82058        0.48379
C          1.16754        0.92236        0.46305
H         -0.32443        2.46229        0.40098
H         -2.78015        2.07912        0.33187
H         -1.90669       -2.88203        0.39312
H          0.49903       -2.44057        0.47039
H          2.93960       -2.04911        0.53488
H          4.70076       -2.13209        2.47801
H          6.40682       -1.63661        2.64993
H          6.00608       -3.23178        1.94531
H          9.13416        0.25409        0.15240
H          7.79776       -0.61219       -0.66934
H          8.15827       -0.94642        1.04579
H          2.09468        2.89087        0.45718
