39
syn_S_S_3-CF3_tetFbenz.log	Energy: -1490598.3882838
C         -3.29928        1.21437        1.03398
C         -1.98973        0.82163        0.76353
C         -0.87309        1.44241        1.40261
C          0.38727        1.02313        1.10575
S          1.87678        1.67441        1.79848
C          0.63410       -0.03456        0.16013
C          2.06378       -0.29031        0.02343
C          2.72034       -1.21946       -0.77708
F          2.03505       -2.04468       -1.57387
C          4.10478       -1.30982       -0.76546
F          4.72692       -2.20035       -1.53292
C          2.83274        0.55309        0.84249
C          4.21497        0.46747        0.85820
F          4.93956        1.27070        1.63806
C          4.85355       -0.46569        0.05284
F          6.17849       -0.56031        0.05648
C         -0.41787       -0.64401       -0.46471
C         -1.75583       -0.23736       -0.18402
C         -2.84469       -0.84408       -0.80802
C         -4.16054       -0.45272       -0.53885
C         -5.26547       -1.07693       -1.17877
C         -6.54397       -0.67258       -0.89418
C         -7.80611       -1.16148       -1.42010
C         -7.89818       -2.26021       -2.42696
F         -7.34058       -3.39542       -1.96708
F         -9.16855       -2.53560       -2.75408
F         -7.24518       -1.94359       -3.56022
C         -8.87773       -0.52438       -0.90912
C         -6.76270        0.38455        0.05339
S         -8.48067        0.71659        0.24557
C         -5.72979        1.01047        0.68956
C         -4.39348        0.60657        0.40924
H         -3.47610        2.01406        1.74960
H         -1.04938        2.24114        2.11727
H         -0.24917       -1.44183       -1.17918
H         -2.66755       -1.64366       -1.52362
H         -5.08349       -1.87458       -1.89220
H         -9.91405       -0.71791       -1.15157
H         -5.90508        1.80897        1.40467
