37
syn_S_O_m-CNbenz_2-Cl.log	Energy: -1173730.5484221
C         -3.60957        1.11781       -0.00370
C         -4.63887        0.17209       -0.00307
C         -6.00983        0.57185       -0.00360
C         -6.94246       -0.41330       -0.00292
O         -8.30156       -0.22993       -0.00327
C         -6.64107       -1.81051       -0.00173
C         -7.92763       -2.47510       -0.00136
C         -8.83620       -1.48183       -0.00231
Cl       -10.54149       -1.54112       -0.00251
C         -5.33455       -2.21617       -0.00120
C         -4.30106       -1.23289       -0.00186
C         -2.95186       -1.59977       -0.00137
C         -1.92717       -0.65306       -0.00201
C         -0.55445       -1.03611       -0.00151
C          0.43146       -0.08965       -0.00216
C          1.87786       -0.27773       -0.00181
C          2.59789       -1.47373       -0.00074
C          3.98256       -1.44810       -0.00059
C          2.57172        0.94472       -0.00272
C          3.95925        0.98923       -0.00259
C          4.66044       -0.21895       -0.00152
C          6.09696       -0.20120       -0.00136
N          7.25615       -0.18926       -0.00124
C          0.07968        1.30467       -0.00335
S          1.50440        2.34676       -0.00402
C         -1.21826        1.71758       -0.00386
C         -2.26515        0.74625       -0.00321
H         -3.86585        2.17465       -0.00461
H         -6.28449        1.62097       -0.00450
H         -8.13474       -3.53402       -0.00052
H         -5.06940       -3.26930       -0.00030
H         -2.69428       -2.65660       -0.00046
H         -0.30775       -2.09482       -0.00060
H          2.07576       -2.42549       -0.00002
H          4.55127       -2.37126        0.00024
H          4.49644        1.93144       -0.00330
H         -1.47678        2.77249       -0.00477
