56
syn_O_NPh_m-CNbenz_diOMe.log	Energy: -958828.4215241
C         -3.83802       -1.40505       -1.13161
C         -4.88060       -0.75741       -0.45664
C         -6.24183       -1.00479       -0.78934
C         -7.21599       -0.33548       -0.09943
N         -8.59624       -0.39431       -0.20325
C         -9.33638       -1.25119       -1.04844
C        -10.33932       -2.06897       -0.52376
C        -11.06994       -2.89264       -1.37283
C        -10.79334       -2.92493       -2.73729
C         -9.78785       -2.11366       -3.25595
C         -9.06878       -1.26700       -2.41931
C         -6.90018        0.57778        0.96546
C         -8.15351        1.05829        1.49299
O         -8.17176        1.95483        2.50462
C         -9.43524        2.32199        3.02133
C         -9.14667        0.45450        0.78457
O        -10.48708        0.56346        0.89977
C        -11.10448        1.34700       -0.12093
C         -5.59980        0.83385        1.30190
C         -4.55427        0.17737        0.59465
C         -3.20898        0.40728        0.89958
C         -2.17272       -0.23754        0.22433
C         -0.80530        0.01194        0.55223
C          0.17650       -0.64191       -0.13334
C          1.62951       -0.65438       -0.09171
C          2.59823       -0.00251        0.66581
C          3.93728       -0.27403        0.41672
C          2.02218       -1.56487       -1.08310
C          3.34349       -1.85732       -1.35600
C          4.30295       -1.19103       -0.58301
C          5.69584       -1.45227       -0.81897
N          6.82063       -1.66072       -1.00699
C         -0.17106       -1.56696       -1.16915
O          0.95678       -2.11675       -1.73380
C         -1.44651       -1.84803       -1.52850
C         -2.49828       -1.17587       -0.82575
H         -4.08376       -2.11094       -1.92183
H         -6.48250       -1.71854       -1.57052
H        -10.54126       -2.05024        0.54105
H        -11.85137       -3.52411       -0.96104
H        -11.35995       -3.57827       -3.39338
H         -9.57026       -2.12634       -4.31962
H         -8.30545       -0.60793       -2.82093
H         -9.23259        2.98799        3.86129
H         -9.99452        1.44622        3.36725
H        -10.03456        2.85469        2.27258
H        -12.16539        1.38870        0.12861
H        -10.97817        0.88476       -1.10575
H        -10.68161        2.35842       -0.13183
H         -5.36142        1.52293        2.10646
H         -2.96395        1.11187        1.69152
H         -0.56863        0.71868        1.34302
H          2.31629        0.70576        1.43807
H          4.71352        0.21893        0.99116
H          3.62505       -2.56452       -2.12684
H         -1.67357       -2.55554       -2.31865
