37
syn_S_S_3-F_m-CNbenz.log	Energy: -1150267.5405111
C         -3.48052        1.31907        0.36829
C         -2.15789        0.88997        0.26925
C         -1.06342        1.76062        0.56090
C          0.21148        1.29562        0.44932
S          1.68552        2.21387        0.76407
C          0.49369       -0.05566        0.04391
C          1.92877       -0.31305       -0.00086
C          2.58861       -1.49396       -0.34559
C          3.97257       -1.54359       -0.32850
C          2.68178        0.81714        0.36139
C          4.06941        0.78547        0.38404
C          4.71001       -0.40603        0.03556
C          6.14525       -0.46575        0.05062
N          7.30322       -0.51689        0.06179
C         -0.53737       -0.90600       -0.23982
C         -1.88962       -0.46577       -0.13781
C         -2.95849       -1.31468       -0.42244
C         -4.28655       -0.88697       -0.32412
C         -5.37300       -1.75627       -0.61574
C         -6.65759       -1.29630       -0.50690
C         -7.89932       -1.99235       -0.74976
F         -7.89258       -3.26927       -1.13893
C         -9.00841       -1.26128       -0.55424
C         -6.91992        0.05393       -0.10156
S         -8.65015        0.37918       -0.04527
C         -5.90347        0.91862        0.18711
C         -4.55511        0.46985        0.08320
H         -3.68352        2.34236        0.67540
H         -1.26895        2.78207        0.86743
H          2.02043       -2.37492       -0.62751
H          4.49498       -2.45566       -0.59453
H          4.65209        1.65657        0.66318
H         -0.34409       -1.93042       -0.54770
H         -2.75562       -2.33810       -0.72970
H         -5.17883       -2.77956       -0.92311
H        -10.03098       -1.58760       -0.67895
H         -6.10017        1.94172        0.49426
