42
syn_C_S_diCF3_2-CF3.log	Energy: -1366791.6833965
C          0.93790       -1.32340        1.56529
C         -0.16997       -0.83048        0.88529
C         -1.49472       -0.99636        1.39650
C         -2.54817       -0.49575        0.69374
S         -4.24845       -0.58633        1.13511
C         -2.37019        0.20047       -0.55711
C         -3.63778        0.63178       -1.10360
C         -4.68192        0.28823       -0.32783
C         -6.12020        0.58753       -0.61392
F         -6.84722       -0.53662       -0.70645
F         -6.66964        1.33337        0.35700
F         -6.24996        1.25599       -1.76769
C         -1.11289        0.37218       -1.06692
C          0.02351       -0.13365       -0.36857
C          1.31256        0.02763       -0.86535
C          2.43372       -0.46865       -0.18123
C          3.73738       -0.30050       -0.69152
C          4.85746       -0.78411       -0.02770
C          6.21925       -0.62844       -0.52345
C          6.35637        0.10981       -1.84590
F          5.66643       -0.52762       -2.81235
F          5.84441        1.35238       -1.74485
F          7.59948        0.24811       -2.29757
C          7.27388       -1.13338        0.19487
C          8.73964       -1.03085       -0.21815
F          9.15199        0.23962       -0.31071
F          9.53757       -1.61831        0.69354
F          8.98331       -1.64927       -1.38035
C          4.65132       -1.47741        1.22273
C          5.78950       -1.98176        1.92297
C          7.03978       -1.81768        1.43402
C          3.37622       -1.64924        1.73341
C          2.23932       -1.16084        1.06447
H          0.79612       -1.84737        2.50750
H         -1.63569       -1.51963        2.33758
H         -3.73801        1.17277       -2.03626
H         -0.96538        0.89484       -2.00814
H          1.45829        0.55108       -1.80729
H          3.82956        0.22669       -1.63091
H          5.63407       -2.50325        2.86306
H          7.88878       -2.20576        1.97900
H          3.25085       -2.17512        2.67678
