41
syn_C_O_tetFbenz_diCN.log	Energy: -990903.4494703
C         -2.30324        1.24202        1.61895
C         -3.55923        0.93017        1.09553
C         -4.72028        1.67311        1.47118
C         -5.89880        1.29970        0.91290
O         -7.12162        1.88206        1.14209
C         -6.03669        0.22481       -0.01212
C         -7.45023        0.19416       -0.33402
C         -8.10708       -0.70137       -1.21811
N         -8.60851       -1.44996       -1.94707
C         -8.01835        1.20064        0.38614
C         -9.37584        1.61877        0.45016
N        -10.48647        1.94537        0.48972
C         -4.94550       -0.50539       -0.39181
C         -3.67480       -0.16727        0.15674
C         -2.52654       -0.88154       -0.19698
C         -1.27325       -0.56496        0.33032
C         -0.11091       -1.29638       -0.03397
C          1.13314       -0.99742        0.47688
C          2.36142       -1.73021        0.12572
C          2.41098       -2.81408       -0.76478
F          1.31865       -3.28243       -1.38325
C          3.59032       -3.47409       -1.06594
F          3.58174       -4.49521       -1.91639
C          3.59019       -1.33303        0.71416
C          4.77130       -2.01174        0.39792
F          5.92584       -1.63317        0.95565
C          4.78758       -3.07396       -0.48218
F          5.91635       -3.70935       -0.77415
C          1.23951        0.10295        1.41491
C          2.52742        0.44807        1.97246
C          3.64145       -0.22709        1.64471
C          0.12326        0.82008        1.77716
C         -1.16088        0.52254        1.25965
H         -2.21213        2.06499        2.32359
H         -4.65304        2.49740        2.17225
H         -5.03296       -1.32765       -1.09549
H         -2.61348       -1.70525       -0.90142
H         -0.23965       -2.10688       -0.73582
H          2.57357        1.27766        2.67207
H          4.60215        0.03974        2.06827
H          0.22622        1.64139        2.48234
