48
syn_C_O_tetClbenz_p-CF3benz.log	Energy: -2087563.1883927
C         -3.38274        1.09013       -0.59120
C         -2.07325        0.63462       -0.44971
C         -0.96540        1.38493       -0.95955
C          0.27516        0.86979       -0.78397
O          1.44456        1.45181       -1.20689
C          0.53409       -0.37386       -0.12140
C          1.98048       -0.52338       -0.16403
C          2.88047       -1.48320        0.28353
C          4.23562       -1.27609        0.04657
C          5.25212       -2.26045        0.55500
F          4.70013       -3.44741        0.85582
F          6.22114       -2.48361       -0.35029
F          5.85989       -1.81331        1.66922
C          2.45412        0.61161       -0.83156
C          3.79879        0.83567       -1.07645
C          4.68732       -0.13165       -0.62391
C         -0.50136       -1.10854        0.37402
C         -1.83813       -0.62427        0.22315
C         -2.92536       -1.34432        0.71672
C         -4.23777       -0.87901        0.58189
C         -5.33756       -1.60421        1.10985
C         -6.63682       -1.15470        1.01235
C         -7.80541       -1.86740        1.57260
C         -7.75160       -2.82292        2.61554
Cl        -6.33374       -3.02858        3.60825
C         -8.86988       -3.57902        2.97032
Cl        -8.76862       -4.77857        4.21241
C         -9.08745       -1.55715        1.04454
C        -10.20585       -2.33289        1.40812
Cl       -11.75574       -2.00402        0.69003
C        -10.10081       -3.36336        2.33112
Cl       -11.47018       -4.33750        2.73099
C         -6.86638        0.03902        0.22750
C         -8.21645        0.39345       -0.12828
C         -9.25347       -0.39756        0.19109
C         -5.81260        0.77108       -0.27023
C         -4.46981        0.36283       -0.09395
H         -3.56504        2.03153       -1.10397
H         -1.12400        2.33050       -1.46639
H          2.53942       -2.37317        0.80035
H          4.13544        1.72304       -1.59940
H          5.75041       -0.00246       -0.79717
H         -0.33307       -2.05437        0.88124
H         -2.74755       -2.28780        1.22773
H         -5.11002       -2.54828        1.58214
H         -8.37374        1.28985       -0.72130
H        -10.25138       -0.14689       -0.14308
H         -6.01816        1.66425       -0.85550
