55
syn_C_NPh_2-CF3_diOMe.log	Energy: -1017406.5123954
C         -3.07867       -0.93742        1.61064
C         -4.04606       -0.09726        1.06453
C         -5.40533       -0.15155        1.49815
C         -6.30753        0.70210        0.93129
N         -7.66875        0.85186        1.14832
C         -8.47151        0.05852        1.99768
C         -8.11183       -0.09639        3.33864
C         -8.89244       -0.88208        4.17950
C        -10.04755       -1.49210        3.69801
C        -10.41304       -1.32045        2.36530
C         -9.62536       -0.55851        1.50962
C         -5.93114        1.62542       -0.10973
C         -7.12974        2.32594       -0.50297
O         -7.08110        3.27890       -1.46032
C         -8.30322        3.88077       -1.83761
C         -8.14920        1.83729        0.25404
O         -9.45963        2.15948        0.25751
C         -9.86903        2.95268        1.37130
C         -4.63916        1.70247       -0.54209
C         -3.65416        0.84778        0.03679
C         -2.32385        0.89264       -0.37086
C         -1.34917        0.04826        0.18050
C          0.00019        0.09071       -0.23088
C          0.95185       -0.74875        0.31926
C          2.32518       -0.70963       -0.09583
C          3.24112       -1.54392        0.45828
C          4.68002       -1.51576        0.03483
F          5.07014       -2.70975       -0.45106
F          4.92531       -0.59866       -0.91368
F          5.49064       -1.24354        1.07542
C          0.56368       -1.69413        1.33929
C          1.57445       -2.55449        1.89223
C          2.86164       -2.48667        1.47288
C         -0.75501       -1.74550        1.75153
C         -1.73837       -0.89502        1.19984
H         -3.36983       -1.64925        2.38000
H         -5.69595       -0.86968        2.25798
H         -7.22785        0.40890        3.71492
H         -8.60332       -1.00387        5.21898
H        -10.66081       -2.09732        4.35829
H        -11.31128       -1.79509        1.98204
H         -9.89797       -0.43475        0.46788
H         -8.06083        4.56327       -2.65343
H         -8.74240        4.44860       -1.00792
H         -9.02701        3.13356       -2.17989
H        -10.92440        3.17696        1.21202
H         -9.28936        3.88244        1.40891
H         -9.74914        2.40577        2.31251
H         -4.35766        2.39808       -1.32672
H         -2.03128        1.60227       -1.14168
H          0.29343        0.80229       -0.99969
H          2.61841        0.00045       -0.86235
H          1.28332       -3.26654        2.65963
H          3.61750       -3.14023        1.89602
H         -1.04822       -2.45756        2.51989
