40
syn_S_O_m-CNbenz_2-CF3.log	Energy: -1096780.7410712
C         -3.61700        1.08168        0.08937
C         -4.64185        0.13039        0.04900
C         -6.01363        0.52116        0.07695
C         -6.94222       -0.46908        0.03346
O         -8.29921       -0.29825        0.05018
C         -6.62872       -1.86092       -0.03799
C         -7.91091       -2.53294       -0.06443
C         -8.83029       -1.55329       -0.00990
C        -10.32295       -1.62212       -0.00405
F        -10.84717       -0.96012       -1.04315
F        -10.71878       -2.89915       -0.07656
F        -10.83339       -1.08732        1.11244
C         -5.31940       -2.25886       -0.06551
C         -4.29379       -1.27055       -0.02241
C         -2.94157       -1.62912       -0.04814
C         -1.92385       -0.67724       -0.00744
C         -0.54824       -1.05101       -0.03394
C          0.43113       -0.09931        0.00666
C          1.87874       -0.27707       -0.01063
C          2.60652       -1.46671       -0.07244
C          3.99098       -1.43130       -0.07896
C          2.56423        0.94873        0.04460
C          3.95135        1.00308        0.03885
C          4.66062       -0.19887       -0.02347
C          6.09685       -0.17103       -0.03068
N          7.25581       -0.15154       -0.03661
C          0.07006        1.29169        0.07649
S          1.48764        2.34196        0.11878
C         -1.23003        1.69577        0.10424
C         -2.27135        0.71854        0.06305
H         -3.87948        2.13554        0.14280
H         -6.29424        1.56728        0.13063
H         -8.10614       -3.59320       -0.11670
H         -5.04808       -3.30908       -0.11948
H         -2.67797       -2.68305       -0.10162
H         -0.29520       -2.10685       -0.08699
H          2.09080       -2.42098       -0.11545
H          4.56593       -2.34933       -0.12664
H          4.48207        1.94795        0.08134
H         -1.49529        2.74761        0.15712
