48
syn_C_NPh_3-Cl_3-OMe.log	Energy: -1022515.1717264
C         -2.38434        1.32476        0.48292
C         -3.57979        0.62024        0.61233
C         -4.82313        1.29716        0.78988
C         -5.96535        0.55365        0.90252
N         -7.28476        0.93585        1.09673
C         -7.78229        2.24866        1.21496
C         -7.38053        3.24096        0.31711
C         -7.88149        4.53178        0.44194
C         -8.80213        4.83927        1.44015
C         -9.21468        3.84450        2.32238
C         -8.70143        2.55641        2.22077
C         -5.93270       -0.88777        0.88178
C         -7.29432       -1.32556        1.08501
O         -7.61866       -2.63517        1.10557
C         -8.98821       -2.90449        1.30281
C         -8.07146       -0.22168        1.21872
C         -4.75858       -1.56265        0.71181
C         -3.54514       -0.82877        0.56339
C         -2.32431       -1.47443        0.38345
C         -1.12281       -0.76474        0.25015
C          0.11361       -1.42107        0.06695
C          1.29587       -0.71684       -0.06279
C          2.58450       -1.33729       -0.25212
Cl         2.68512       -3.08440       -0.32638
C          3.72550       -0.61293       -0.37535
C          1.26815        0.73053       -0.00917
C          2.49698        1.46135       -0.14337
C          3.67718        0.81575       -0.31919
C          0.05962        1.37952        0.16997
C         -1.15521        0.67476        0.30317
H         -2.40382        2.41173        0.52128
H         -4.83596        2.38063        0.84318
H         -6.69602        2.99056       -0.48658
H         -7.56252        5.29702       -0.25933
H         -9.19685        5.84649        1.52862
H         -9.92901        4.07411        3.10733
H         -8.99513        1.78874        2.93027
H         -9.09780       -3.98926        1.30179
H         -9.59416       -2.47269        0.49444
H         -9.33323       -2.50069        2.26469
H         -9.13907       -0.12692        1.34865
H         -4.73844       -2.64824        0.69888
H         -2.30143       -2.56128        0.34643
H          0.12427       -2.50553        0.02868
H          4.67519       -1.11690       -0.51656
H          2.45818        2.54627       -0.10049
H          4.60294        1.37322       -0.41999
H          0.04305        2.46645        0.20962
