40
syn_C_O_2-F_m-CNbenz.log	Energy: -746306.2369314
C         -3.37491        1.11111        0.65534
C         -2.07822        0.66774        0.43419
C         -0.94331        1.44475        0.84365
C          0.28622        0.94079        0.59120
O          1.47774        1.54572        0.91219
C          0.51205       -0.31860       -0.05867
C          1.95886       -0.45362       -0.11845
C          2.83683       -1.41525       -0.60960
C          4.20292       -1.19739       -0.48736
C          2.46596        0.70541        0.48446
C          3.81715        0.95310        0.62203
C          4.68428       -0.02624        0.12162
C          6.10293        0.17250        0.23423
N          7.24793        0.32935        0.32327
C         -0.54432       -1.07879       -0.45923
C         -1.87627       -0.60808       -0.22469
C         -2.98140       -1.35323       -0.61763
C         -4.29525       -0.90766       -0.39548
C         -5.41894       -1.66085       -0.79260
C         -6.70974       -1.21231       -0.56855
C         -7.85966       -1.97224       -0.96945
C         -9.09736       -1.48321       -0.72415
F        -10.18429       -2.17844       -1.09124
C         -6.91029        0.05878        0.08842
C         -8.25532        0.51128        0.31426
C         -9.32183       -0.23162       -0.07736
C         -5.81328        0.80627        0.48234
C         -4.49545        0.35970        0.25936
H         -3.53181        2.06729        1.14909
H         -1.07820        2.40091        1.33730
H          2.46515       -2.31975       -1.07991
H          4.91106       -1.92856       -0.86060
H          4.18839        1.85599        1.09153
H         -0.39910       -2.03547       -0.95319
H         -2.82708       -2.30983       -1.11181
H         -5.26311       -2.61699       -1.28673
H         -7.73814       -2.92984       -1.46456
H         -8.40503        1.46712        0.80835
H        -10.34298        0.09508        0.08534
H         -5.96821        1.76277        0.97655
