30
syn_O_O_3-Cl_diF.log	Energy: -941303.3192463
C         -0.06940        1.43468        0.33978
C         -1.17793        0.59330        0.24065
C         -2.50784        1.12020        0.24185
C         -3.52754        0.23447        0.14173
O         -4.86873        0.54790        0.12578
C         -3.34694       -1.18020        0.03625
C         -4.68975       -1.69874       -0.04508
F         -5.03557       -2.97809       -0.15595
C         -5.51348       -0.63767        0.01320
F         -6.81771       -0.55795       -0.02013
C         -2.08970       -1.71280        0.03254
C         -0.96968       -0.83309        0.13532
C          0.33768       -1.32243        0.13663
C          1.44993       -0.48166        0.23598
C          2.77571       -1.00710        0.23522
C          3.82693       -0.14038        0.33461
C          5.26808       -0.26035        0.36916
Cl         6.16411       -1.72774        0.28257
C          5.76703        0.98545        0.48142
C          3.59570        1.26426        0.43700
O          4.78632        1.93410        0.52535
C          2.35870        1.82454        0.44328
C          1.23923        0.94419        0.34088
H         -0.22856        2.50757        0.41885
H         -2.68394        2.18756        0.32010
H         -1.93110       -2.78360       -0.04661
H          0.49698       -2.39541        0.05762
H          2.93452       -2.07853        0.15655
H          6.78103        1.34997        0.54083
H          2.21774        2.89709        0.52268
