37
syn_C_C_2-CN_3-F.log	Energy: -651303.1900952
C         -2.53070        0.72677       -0.63308
C         -3.64917        0.30827        0.09447
C         -4.94954        0.78954       -0.18670
C         -6.05180        0.37408        0.53405
C         -7.37958        0.85486        0.25943
C         -8.44003        0.42409        0.98923
C         -5.86518       -0.58017        1.60546
C         -7.03548       -0.98708        2.33121
F         -6.85200       -1.87255        3.32342
C         -8.27380       -0.52091        2.05441
C         -4.60893       -1.06553        1.90063
C         -3.47471       -0.64502        1.16709
C         -2.19339       -1.12532        1.45103
C         -1.07601       -0.70644        0.72313
C          0.22372       -1.18770        1.00404
C          1.32190       -0.76766        0.27880
C          2.64015       -1.25441        0.56178
C          3.71174       -0.82685       -0.16662
C          5.02541       -1.32419        0.12947
N          6.09027       -1.72027        0.36108
C          1.15017        0.18665       -0.79525
C          2.31365        0.60468       -1.53219
C          3.54507        0.12415       -1.23780
C         -0.11157        0.66541       -1.08133
C         -1.24933        0.24712       -0.34983
H         -2.66172        1.44401       -1.43998
H         -5.07882        1.50659       -0.99396
H         -7.51382        1.57102       -0.54588
H         -9.43801        0.79264        0.77448
H         -9.12204       -0.86341        2.63594
H         -4.48327       -1.78101        2.70685
H         -2.06302       -1.84249        2.25806
H          0.35512       -1.90498        1.81084
H          2.77567       -1.97078        1.36648
H          2.18399        1.32120       -2.33833
H          4.41919        0.44172       -1.79568
H         -0.24282        1.38274       -1.88814
