47
syn_S_NPh_benz_3-F.log	Energy: -1022211.5136883
C         -3.55960        1.14821        0.04905
C         -4.60856        0.21871        0.01158
C         -5.96621        0.63990        0.02123
C         -6.94925       -0.31355       -0.02420
N         -8.33382       -0.19015       -0.00901
C         -9.07916        1.00865        0.04522
C         -8.77697        2.06476       -0.81649
C         -9.51883        3.23915       -0.75535
C        -10.57681        3.35948        0.14180
C        -10.88572        2.29780        0.98762
C        -10.13454        1.12828        0.95063
C         -6.63598       -1.71772       -0.04870
C         -7.90517       -2.38907       -0.03500
F         -8.05694       -3.71475       -0.06434
C         -8.89400       -1.46886       -0.00521
C         -5.33489       -2.14704       -0.05965
C         -4.28733       -1.18898       -0.03686
C         -2.94085       -1.57681       -0.04900
C         -1.90416       -0.64819       -0.01351
C         -0.53451       -1.04999       -0.02543
C          0.46538       -0.12131        0.01134
C          1.91095       -0.32892        0.00718
C          2.61592       -1.53275       -0.03525
C          4.00425       -1.51908       -0.03131
C          2.62291        0.87991        0.05341
C          4.01422        0.90209        0.05758
C          4.69848       -0.30736        0.01480
C          0.13139        1.27881        0.06244
S          1.57204        2.29804        0.10357
C         -1.15931        1.71065        0.07565
C         -2.22381        0.75650        0.03795
H         -3.79890        2.20868        0.08762
H         -6.19794        1.69855        0.07471
H         -7.97693        1.95303       -1.54100
H         -9.27792        4.05774       -1.42671
H        -11.15840        4.27509        0.18025
H        -11.70631        2.38375        1.69335
H        -10.35081        0.31117        1.63224
H         -9.96516       -1.60218       -0.01619
H         -5.09867       -3.20686       -0.07604
H         -2.70081       -2.63729       -0.08582
H         -0.30377       -2.11175       -0.06411
H          2.07897       -2.47641       -0.07110
H          4.55311       -2.45495       -0.06420
H          4.55529        1.84242        0.09350
H          5.78420       -0.30681        0.01750
H         -1.40159        2.76890        0.11458
