52
syn_C_O_p-OMebenz_p-CF3benz.log	Energy: -1005861.1069025
C         -3.36409        0.79413       -1.06388
C         -2.04522        0.42715       -0.80634
C         -0.95185        1.04201       -1.49823
C          0.29974        0.62782       -1.18848
O          1.45938        1.10651       -1.75120
C          0.58489       -0.38330       -0.21481
C          2.03528       -0.49889       -0.21257
C          2.95599       -1.27704        0.47771
C          4.30853       -1.10438        0.19657
C          5.33860       -1.88445        0.96457
F          4.83336       -3.02105        1.47349
F          6.38765       -2.21958        0.19290
F          5.82964       -1.17618        1.99868
C          2.48580        0.42724       -1.16121
C          3.82635        0.61323       -1.45437
C          4.73650       -0.17119       -0.75590
C         -0.43586       -0.98517        0.45870
C         -1.78366       -0.59641        0.18179
C         -2.85696       -1.18607        0.84833
C         -4.18082       -0.81534        0.58827
C         -5.27451       -1.41302        1.26557
C         -6.57921       -1.05446        1.01641
C         -7.72263       -1.66649        1.71300
C         -7.56554       -2.65953        2.68358
C         -8.65985       -3.22353        3.32884
O         -8.37028       -4.17738        4.25028
C         -9.44091       -4.78600        4.93624
C         -9.03250       -1.23591        1.39118
C        -10.12210       -1.81610        2.05193
C         -9.95701       -2.79888        3.01154
C         -6.83516       -0.03162        0.02669
C         -8.19994        0.36014       -0.25219
C         -9.23478       -0.20945        0.39239
C         -5.78591        0.56006       -0.64095
C         -4.43975        0.19983       -0.39247
H         -3.56485        1.56319       -1.80623
H         -1.13074        1.81107       -2.24179
H          2.63335       -2.00483        1.21401
H          4.14470        1.33528       -2.19707
H          5.79717       -0.06436       -0.95597
H         -0.24723       -1.75451        1.20237
H         -2.65921       -1.95556        1.59150
H         -5.04165       -2.17693        2.00059
H         -6.58769       -3.02786        2.97092
H         -8.98936       -5.51023        5.61517
H        -10.11617       -5.30977        4.24740
H        -10.01490       -4.05434        5.51938
H        -11.12572       -1.48209        1.80118
H        -10.82590       -3.22322        3.50066
H         -8.36651        1.13046       -1.00015
H        -10.25536        0.09394        0.17320
H         -5.99284        1.32820       -1.38289
