35
syn_C_S_3-Cl_diCN.log	Energy: -1136585.5403830
C         -2.41783        0.79039       -1.06047
C         -3.56645        0.68118       -0.28397
C         -4.82360        1.18732       -0.73774
C         -5.92014        1.05618        0.05910
S         -7.55532        1.60224       -0.29703
C         -5.84706        0.42109        1.34715
C         -7.14321        0.40669        1.99636
C         -7.35330       -0.16415        3.28532
N         -7.47393       -0.64081        4.33496
C         -8.11941        0.99108        1.24474
C         -9.48605        1.12868        1.61024
N        -10.60369        1.24855        1.89385
C         -4.65817       -0.07315        1.80909
C         -3.48414        0.04066        1.01116
C         -2.25838       -0.45169        1.45151
C         -1.09902       -0.34271        0.67049
C          0.14415       -0.84133        1.11601
C          1.28513       -0.73217        0.34352
C          2.57830       -1.22458        0.75311
Cl         2.73626       -2.00610        2.30934
C          3.67750       -1.09963       -0.03296
C          1.20631       -0.09225       -0.95324
C          2.39229        0.02006       -1.75458
C          3.57910       -0.46461       -1.31094
C         -0.00951        0.39864       -1.39557
C         -1.18129        0.29481       -0.61883
H         -2.47654        1.27110       -2.03403
H         -4.88105        1.66732       -1.71003
H         -4.60208       -0.55315        2.78248
H         -2.19754       -0.93256        2.42470
H          0.19411       -1.31933        2.08872
H          4.63329       -1.48172        0.30779
H          2.31596        0.50256       -2.72468
H          4.47334       -0.37791       -1.91954
H         -0.06498        0.87860       -2.36973
