51
syn_O_NPh_3-F_m-OMebenz.log	Energy: -891379.1555696
C         -3.49097        1.24326       -0.17136
C         -2.17716        0.77591       -0.13105
C         -1.06816        1.67402       -0.06970
C          0.19145        1.15351       -0.02804
N          1.42224        1.80950        0.02031
C          1.60302        3.21247        0.05852
C          1.01170        3.96395        1.07472
C          1.18391        5.34361        1.10367
C          1.96127        5.97488        0.13593
C          2.55814        5.22132       -0.87138
C          2.37197        3.84382       -0.91997
C          0.44090       -0.26661       -0.06149
C          1.88403       -0.42888       -0.02909
C          2.73019       -1.53747       -0.02543
C          4.09962       -1.35090        0.03011
C          2.44239        0.85801        0.01977
C          3.81759        1.07419        0.08780
C          4.63920       -0.05299        0.09044
O          5.99276        0.00394        0.15104
C          6.60275        1.27257        0.21915
C         -0.60369       -1.14121       -0.12021
C         -1.94414       -0.64865       -0.15284
C         -3.03664       -1.51221       -0.21059
C         -4.35595       -1.04646       -0.24985
C         -5.45742       -1.94729       -0.30890
C         -6.72524       -1.43517       -0.34618
C         -8.06026       -1.97547       -0.40708
F         -8.35967       -3.27180       -0.44397
C         -8.92705       -0.94743       -0.41933
C         -6.93666       -0.02457       -0.32624
O         -8.27437        0.25890       -0.37088
C         -5.92519        0.88187       -0.27048
C         -4.58980        0.37950       -0.23027
H         -3.66816        2.31641       -0.15683
H         -1.24471        2.74505       -0.06273
H          0.42543        3.45948        1.83637
H          0.71900        5.92521        1.89389
H          2.10025        7.05110        0.16599
H          3.15917        5.70845       -1.63323
H          2.81155        3.25022       -1.71566
H          2.32011       -2.54252       -0.06323
H          4.78559       -2.19043        0.03287
H          4.21513        2.07956        0.14494
H          7.67688        1.08813        0.25894
H          6.29530        1.81942        1.11980
H          6.37194        1.87821       -0.66690
H         -0.43466       -2.21460       -0.14819
H         -2.85913       -2.58551       -0.22669
H         -5.28067       -3.01847       -0.32366
H        -10.00380       -0.90840       -0.45918
H         -6.11747        1.94944       -0.25699
