51
syn_O_NPh_p-OMebenz_diCl.log	Energy: -1405907.3582852
C         -4.24495       -0.94214       -0.99120
C         -5.17398       -1.06512        0.05083
C         -6.57204       -1.10023       -0.20636
C         -7.42379       -1.22697        0.85611
N         -8.81481       -1.27743        0.87706
C         -9.65022       -1.23740       -0.27266
C        -10.53133       -0.17515       -0.46222
C        -11.33453       -0.14547       -1.59717
C        -11.24139       -1.15830       -2.54819
C        -10.34850       -2.21022       -2.35978
C         -9.55681       -2.25785       -1.21746
C         -6.95631       -1.31036        2.21104
C         -8.13460       -1.41478        3.03128
Cl        -8.15702       -1.55567        4.74461
C         -9.21207       -1.39274        2.20364
Cl       -10.86384       -1.52446        2.62391
C         -5.61395       -1.27684        2.48147
C         -4.69046       -1.15712        1.40825
C         -3.30859       -1.12267        1.63518
C         -2.38819       -1.00186        0.59693
C         -0.98081       -0.96952        0.85104
C         -0.11487       -0.85002       -0.19393
C          1.33291       -0.78418       -0.33159
C          2.39767       -0.81848        0.55557
C          3.69603       -0.72763        0.04558
O          4.69004       -0.76815        0.97428
C          6.02215       -0.68114        0.52629
C          1.56974       -0.66088       -1.70610
C          2.84191       -0.56982       -2.22920
C          3.91330       -0.60454       -1.33350
C         -0.61780       -0.75749       -1.53422
O          0.40534       -0.64368       -2.43758
C         -1.93770       -0.78208       -1.84099
C         -2.87190       -0.90762       -0.76222
H         -4.61027       -0.87135       -2.01326
H         -6.94045       -1.02615       -1.22474
H        -10.58008        0.61826        0.27648
H        -12.02663        0.67790       -1.74310
H        -11.86413       -1.12737       -3.43683
H        -10.27483       -3.00281       -3.09783
H         -8.86715       -3.07881       -1.04814
H         -5.25109       -1.33793        3.50346
H         -2.94383       -1.19250        2.65770
H         -0.62403       -1.04095        1.87494
H          2.25498       -0.91309        1.62675
H          6.64419       -0.73227        1.42075
H          6.21380        0.26778        0.00805
H          6.28038       -1.51475       -0.14018
H          3.00653       -0.47471       -3.29651
H          4.91974       -0.53412       -1.72851
H         -2.28497       -0.70983       -2.86608
