43
syn_C_S_p-CNbenz_2-CF3.log	Energy: -1098163.8255741
C          1.19369       -1.68896        1.49223
C          0.18573       -1.05137        0.76782
C         -1.18766       -1.17758        1.13225
C         -2.13603       -0.53436        0.39270
S         -3.87368       -0.55160        0.66100
C         -1.79261        0.27125       -0.74980
C         -2.96970        0.84480       -1.36237
C         -4.10602        0.49737       -0.73009
C         -5.48738        0.92634       -1.11353
F         -6.27173       -0.12745       -1.38859
F         -6.08217        1.61187       -0.12476
F         -5.46135        1.71215       -2.19850
C         -0.47973        0.40576       -1.11738
C          0.54498       -0.24645       -0.37564
C          1.89101       -0.12626       -0.72751
C          2.89888       -0.76536       -0.00073
C          4.26844       -0.64584       -0.35459
C          5.26710       -1.27107        0.35457
C          6.69106       -1.15941        0.00353
C          7.13826       -0.40320       -1.08780
C          8.49085       -0.31582       -1.39543
C          8.91064        0.46942       -2.52252
N          9.24881        1.10331       -3.43236
C          7.65472       -1.83523        0.78804
C          9.01864       -1.73540        0.46203
C          9.44500       -0.98816       -0.61380
C          4.90023       -2.07559        1.49880
C          5.93680       -2.74010        2.25711
C          7.23587       -2.62770        1.92361
C          3.57843       -2.20470        1.85899
C          2.54020       -1.56633        1.13715
H          0.92594       -2.29594        2.35398
H         -1.45310       -1.78412        1.99314
H         -2.94302        1.48513       -2.23524
H         -0.20776        1.01124       -1.97787
H          2.16045        0.48043       -1.58912
H          4.49961       -0.03239       -1.21958
H          6.43732        0.13147       -1.71767
H          9.74436       -2.26126        1.07593
H         10.49806       -0.91382       -0.86187
H          5.63645       -3.33896        3.11260
H          8.00225       -3.13344        2.50412
H          3.31791       -2.81317        2.72202
