43
syn_S_O_p-OMebenz_3-CF3.log	Energy: -1110764.7582375
C         -3.56662        1.12789       -0.03095
C         -4.58245        0.16631       -0.02576
C         -5.95880        0.54518       -0.03694
C         -6.87785       -0.45421       -0.03081
O         -8.24205       -0.30020       -0.03954
C         -6.54774       -1.84090       -0.01396
C         -7.83018       -2.51651       -0.01309
C         -8.06483       -3.98101        0.00199
F         -7.50970       -4.58107       -1.06589
F         -7.52313       -4.55680        1.08992
F         -9.37651       -4.26952       -0.00288
C         -8.76910       -1.55061       -0.02852
C         -5.23770       -2.23196       -0.00304
C         -4.22152       -1.23262       -0.00876
C         -2.86578       -1.57882        0.00181
C         -1.85700       -0.61695       -0.00348
C         -0.47682       -0.97804        0.00735
C          0.49393       -0.01812        0.00196
C          1.94534       -0.18483        0.01108
C          2.67176       -1.36896        0.02727
C          4.06591       -1.32631        0.03384
O          4.68849       -2.53341        0.04955
C          6.09761       -2.55484        0.05674
C          2.62011        1.04751        0.00145
C          4.00575        1.09461        0.00802
C          4.73140       -0.09444        0.02427
C          0.12013        1.37224       -0.01480
S          1.52634        2.43675       -0.01901
C         -1.18444        1.76385       -0.02562
C         -2.21729        0.77686       -0.02029
H         -3.83884        2.18075       -0.04368
H         -6.24845        1.59027       -0.04978
H         -9.84732       -1.60403       -0.03351
H         -4.96226       -3.28187        0.00978
H         -2.59258       -2.63157        0.01456
H         -0.21291       -2.03249        0.01999
H          2.18132       -2.33703        0.03500
H          6.38172       -3.60767        0.06856
H          6.50446       -2.06152        0.94905
H          6.51329       -2.07920       -0.84108
H          4.53155        2.04418        0.00065
H          5.81385       -0.04590        0.02929
H         -1.45941        2.81462       -0.03825
