39
syn_S_S_3-F_p-CF3benz.log	Energy: -1303848.9531557
C         -3.46518        1.33591        0.26756
C         -2.14009        0.90499        0.22440
C         -1.05311        1.79718        0.47665
C          0.22429        1.32891        0.42338
S          1.69130        2.27011        0.70373
C          0.51794       -0.04621        0.11867
C          1.95552       -0.29851        0.12206
C          2.62307       -1.49748       -0.12468
C          4.00853       -1.53050       -0.06929
C          4.75888       -2.80069       -0.35921
F          3.94528       -3.86562       -0.44242
F          5.43109       -2.72061       -1.52189
F          5.66954       -3.06271        0.59519
C          2.69855        0.85372        0.42043
C          4.09043        0.82397        0.47614
C          4.73999       -0.37522        0.22960
C         -0.50541       -0.91679       -0.12623
C         -1.86081       -0.47467       -0.08214
C         -2.92239       -1.34429       -0.32811
C         -4.25319       -0.91503       -0.28558
C         -5.33214       -1.80589       -0.53712
C         -6.61968       -1.34384       -0.48507
C         -7.85506       -2.05927       -0.70283
F         -7.83842       -3.36019       -1.00250
C         -8.96946       -1.32054       -0.57964
C         -6.89259        0.03015       -0.17932
S         -8.62465        0.35243       -0.17846
C         -5.88362        0.91606        0.06807
C         -4.53252        0.46566        0.02138
H         -3.67592        2.37744        0.49904
H         -1.26635        2.83686        0.70744
H          2.06656       -2.39927       -0.35525
H          4.65847        1.71837        0.70952
H          5.82331       -0.42083        0.27180
H         -0.30387       -1.95947       -0.35825
H         -2.71168       -2.38590       -0.55959
H         -5.12997       -2.84735       -0.76906
H         -9.98879       -1.65810       -0.70088
H         -6.08814        1.95735        0.29984
