39
syn_S_S_diCN_p-CNbenz.log	Energy: -1203733.7554568
C         -3.38671        1.40693        0.62655
C         -2.08011        0.94034        0.49230
C         -0.96996        1.66046        1.03048
C          0.28833        1.16473        0.87353
S          1.77744        1.90482        1.46278
C          0.53885       -0.07030        0.17827
C          1.96448       -0.38360        0.14533
C          2.59290       -1.48279       -0.43118
C          3.98126       -1.59684       -0.35186
C          4.63570       -2.72908       -0.94538
N          5.16276       -3.64329       -1.42492
C          2.73963        0.59107        0.79658
C          4.12587        0.48219        0.87887
C          4.74404       -0.61587        0.30195
C         -0.50636       -0.77588       -0.34431
C         -1.84371       -0.29788       -0.20630
C         -2.92640       -1.00005       -0.73124
C         -4.23963       -0.53394       -0.59804
C         -5.33825       -1.25437       -1.13546
C         -6.61114       -0.76736       -0.98598
C         -7.85684       -1.34098       -1.45325
C         -7.91712       -2.56776       -2.17629
N         -7.91315       -3.56877       -2.76061
C         -8.94376       -0.58414       -1.12633
C        -10.29685       -0.88179       -1.44360
N        -11.40505       -1.11108       -1.69495
C         -6.83773        0.46556       -0.28987
S         -8.54783        0.86992       -0.23557
C         -5.80838        1.18817        0.24159
C         -4.47625        0.70470        0.10060
H         -3.56445        2.34117        1.15360
H         -1.15026        2.59324        1.55651
H          2.01781       -2.24952       -0.94002
H          4.71595        1.23960        1.38372
H          5.82197       -0.72394        0.35216
H         -0.33867       -1.71059       -0.87285
H         -2.74933       -1.93433       -1.25850
H         -5.16528       -2.18863       -1.66295
H         -5.98225        2.12157        0.76839
