36
syn_C_S_2-CF3_3-F.log	Energy: -1006171.1100968
C         -2.43496        1.36101        0.13292
C         -3.63874        0.68820        0.31795
C         -4.89057        1.37778        0.28120
C         -6.04469        0.67867        0.46753
S         -7.69148        1.30836        0.46495
C         -6.03058       -0.74000        0.70082
C         -7.38023       -1.22886        0.86466
F         -7.60515       -2.52490        1.09248
C         -8.33929       -0.29484        0.76951
C         -4.85292       -1.43053        0.74232
C         -3.61996       -0.73967        0.55236
C         -2.39843       -1.40578        0.58696
C         -1.18334       -0.73019        0.40063
C          0.05852       -1.40033        0.43442
C          1.25029       -0.72369        0.24944
C          2.51589       -1.40065        0.28259
C          3.67216       -0.71513        0.09833
C          5.00380       -1.40763        0.12973
F          4.89710       -2.72664        0.34945
F          5.66400       -1.24469       -1.03188
F          5.79319       -0.90092        1.09503
C          1.23322        0.70095        0.01591
C          2.48781        1.37770       -0.17282
C          3.66198        0.70189       -0.13409
C          0.02341        1.36938       -0.01973
C         -1.20161        0.69271        0.16720
H         -2.44774        2.43411       -0.04333
H         -4.89841        2.44950        0.10479
H         -9.40517       -0.44789        0.86045
H         -4.84797       -2.50197        0.91893
H         -2.38436       -2.47887        0.76312
H          0.07265       -2.47351        0.61037
H          2.53110       -2.47144        0.45772
H          2.47556        2.44972       -0.34858
H          4.60443        1.22008       -0.27769
H          0.00911        2.44255       -0.19573
