43
syn_O_NPh_3-CN_3-CN.log	Energy: -776625.3185844
C         -0.81827        1.08391        0.85485
C         -1.80900        0.13132        0.59404
C         -3.19006        0.44416        0.74033
C         -4.10515       -0.53507        0.47406
N         -5.50104       -0.50133        0.51973
C         -6.30540        0.60337        0.90344
C         -6.05899        1.25607        2.11097
C         -6.85537        2.33367        2.48186
C         -7.90470        2.74689        1.66475
C         -8.15211        2.08326        0.46640
C         -7.34776        1.01764        0.07627
C         -3.72424       -1.84687        0.03282
C         -4.96091       -2.57416       -0.18247
C         -5.08624       -3.91874       -0.61476
N         -5.16260       -5.02084       -0.97084
C         -5.98451       -1.72162        0.12035
C         -2.40348       -2.17062       -0.11393
C         -1.41119       -1.19079        0.16871
C         -0.04877       -1.47680        0.03608
C          0.93944       -0.52723        0.29864
C          2.32443       -0.84434        0.15623
C          3.24981        0.12197        0.42455
C          4.70334        0.20018        0.40197
C          5.61518       -0.83169        0.05505
N          6.34050       -1.68967       -0.23217
C          5.01783        1.46255        0.78070
C          2.83143        1.42069        0.83824
O          3.93150        2.21959        1.04889
C          1.53548        1.78769        0.99345
C          0.54012        0.79786        0.72082
H         -1.11751        2.08004        1.17267
H         -3.48926        1.44083        1.04834
H         -5.25866        0.90795        2.75607
H         -6.66342        2.84197        3.42158
H         -8.52836        3.58400        1.96174
H         -8.96549        2.40342       -0.17708
H         -7.51405        0.51518       -0.87187
H         -7.04997       -1.90393        0.10275
H         -2.10575       -3.16024       -0.44875
H          0.24977       -2.47250       -0.28331
H          2.62172       -1.83965       -0.16045
H          5.97370        1.95067        0.90030
H          1.25582        2.78652        1.31014
