55
syn_NPh_NPh_3-Cl_3-CF3.log	Energy: -1293216.4127770
C         -0.49791        0.22335        0.71173
C         -1.71693       -0.43118        0.90518
C         -2.95157        0.17925        0.53965
C         -4.10824       -0.51350        0.76076
N         -5.43464       -0.17037        0.48801
C         -5.89669        1.04492       -0.07317
C         -5.46872        2.26502        0.45128
C         -5.93337        3.45236       -0.10308
C         -6.83793        3.42909       -1.16165
C         -7.27168        2.20896       -1.67235
C         -6.79517        1.01602       -1.13931
C         -4.11884       -1.83785        1.32107
C         -5.50531       -2.24731        1.35482
C         -6.02806       -3.53309        1.86816
F         -5.73560       -3.71320        3.17115
F         -7.36517       -3.61094        1.74106
F         -5.49837       -4.58745        1.21655
C         -6.24277       -1.22777        0.84799
C         -2.94516       -2.44346        1.67901
C         -1.71447       -1.75462        1.48715
C         -0.49360       -2.33307        1.84217
C          0.72538       -1.67735        1.65134
C          1.95831       -2.27784        2.03008
C          3.12822       -1.60073        1.82047
C          4.51278       -1.89055        2.09774
Cl         5.10630       -3.34411        2.81570
C          5.25791       -0.83722        1.68713
C          3.11871       -0.29454        1.21411
N          4.43964        0.14183        1.13986
C          4.89970        1.37509        0.62345
C          4.45216        1.82710       -0.61910
C          4.91553        3.03885       -1.11910
C          5.84030        3.79134       -0.39961
C          6.29524        3.32927        0.83221
C          5.81977        2.13015        1.35162
C          1.95546        0.32847        0.85490
C          0.72420       -0.35631        1.06375
H         -0.49993        1.21831        0.27161
H         -2.95073        1.16677        0.08948
H         -4.78964        2.27599        1.29765
H         -5.59790        4.40020        0.30640
H         -7.20378        4.35854       -1.58636
H         -7.97299        2.18232       -2.50059
H         -7.10393        0.06154       -1.55493
H         -7.31474       -1.15303        0.73152
H         -2.93971       -3.44452        2.09952
H         -0.49185       -3.32787        2.28217
H          1.96068       -3.26254        2.48888
H          6.32981       -0.70327        1.70826
H          3.75964        1.21961       -1.19260
H          4.56359        3.38692       -2.08541
H          6.20541        4.73278       -0.79770
H          7.01279        3.91152        1.40213
H          6.14569        1.78259        2.32736
H          1.94822        1.32615        0.42806
