55
syn_NPh_NPh_3-CN_diCN.log	Energy: -966967.0203851
C          0.53556        0.66853        0.53915
C         -0.78496        0.29065        0.80223
C         -1.88115        0.98121        0.21469
C         -3.14593        0.55539        0.51301
N         -4.37671        1.05288        0.09105
C         -4.56911        2.13743       -0.81169
C         -4.00893        2.07014       -2.08611
C         -4.18706        3.13127       -2.96631
C         -4.93483        4.24172       -2.58215
C         -5.49848        4.29580       -1.31066
C         -5.30848        3.24877       -0.41513
C         -3.39857       -0.54190        1.40081
C         -4.83454       -0.67200        1.48794
C         -5.55001       -1.62915        2.25026
N         -6.10096       -2.42697        2.88718
C         -5.37317        0.30548        0.68585
C         -6.75117        0.56008        0.43629
N         -7.87525        0.76488        0.24336
C         -2.35968       -1.22257        1.97926
C         -1.02688       -0.82530        1.69122
C          0.06642       -1.48969        2.25729
C          1.38301       -1.11094        1.99348
C          2.48294       -1.79355        2.58839
C          3.75581       -1.38858        2.30071
C          5.06748       -1.83191        2.73535
C          5.34638       -2.90138        3.62353
N          5.54881       -3.78057        4.35377
C          5.98535       -1.03044        2.11879
C          3.98377       -0.29025        1.40230
N          5.36605       -0.10720        1.31409
C          6.03882        0.87484        0.54111
C          5.74658        1.01225       -0.81557
C          6.41483        1.97316       -1.56601
C          7.38371        2.77960       -0.97398
C          7.67857        2.62889        0.37805
C          7.00039        1.68509        1.14221
C          2.96363        0.40617        0.82053
C          1.62575        0.00449        1.10417
H          0.71851        1.50814       -0.12756
H         -1.70290        1.82374       -0.44560
H         -3.44859        1.18815       -2.37995
H         -3.75273        3.08250       -3.95978
H         -5.08031        5.06407       -3.27541
H         -6.08223        5.15899       -1.00796
H         -5.72906        3.29065        0.58442
H         -2.54449       -2.05328        2.65430
H         -0.11675       -2.32720        2.92626
H          2.30069       -2.62114        3.26804
H          7.06446       -1.06271        2.17630
H          5.01271        0.35845       -1.27585
H          6.18743        2.08026       -2.62201
H          7.90809        3.52330       -1.56545
H          8.42937        3.25741        0.84644
H          7.20172        1.58308        2.20437
H          3.14644        1.25064        0.16398
