43
syn_S_O_tetFbenz_p-CNbenz.log	Energy: -1230730.6839652
C         -3.05357       -1.30421        1.72720
C         -4.13127       -0.71672        1.06193
C         -5.47605       -0.91356        1.50836
C         -6.46389       -0.30772        0.80550
O         -7.80610       -0.38712        1.09013
C         -6.23434        0.50902       -0.34647
C         -7.55933        0.94076       -0.76625
C         -8.05168        1.73421       -1.79189
C         -9.43537        1.92538       -1.87363
C         -9.97614        2.74153       -2.92421
N        -10.41135        3.40053       -3.77303
C         -8.44882        0.35974        0.14819
C         -9.82141        0.53574        0.08583
C        -10.30683        1.33137       -0.94369
C         -4.96201        0.71306       -0.79276
C         -3.87293        0.10341       -0.09797
C         -2.55417        0.28460       -0.51958
C         -1.47838       -0.30440        0.14763
C         -0.13665       -0.11294       -0.29224
C          0.90000       -0.70153        0.37871
C          2.33135       -0.64031        0.10486
C          3.00713        0.03238       -0.90815
F          2.34221        0.75642       -1.81345
C          4.38982       -0.03404       -1.00090
F          5.03029        0.61118       -1.97168
C          3.07918       -1.38695        1.03037
C          4.45969       -1.45696        0.94285
F          5.16410       -2.16751        1.82434
C          5.11754       -0.77939       -0.07465
F          6.44098       -0.83654       -0.17240
C          0.62970       -1.51646        1.53310
S          2.09970       -2.18224        2.25223
C         -0.63797       -1.72453        1.98615
C         -1.73593       -1.12115        1.30271
H         -3.24642       -1.92223        2.60083
H         -5.68750       -1.52643        2.37770
H         -7.39127        2.19856       -2.51639
H        -10.48169        0.07207        0.80902
H        -11.37383        1.50135       -1.03777
H         -4.75941        1.32853       -1.66473
H         -2.35904        0.90226       -1.39325
H          0.04923        0.50415       -1.16398
H         -0.83217       -2.34170        2.85847
