43
syn_S_NPh_3-F_diCN.log	Energy: -1041546.3529985
C          0.68223        1.04954        0.45741
C         -0.52475        0.34025        0.43137
C         -1.77581        1.01534        0.41604
C         -2.91569        0.25940        0.38705
N         -4.24971        0.65869        0.37892
C         -4.71389        2.00540        0.36404
C         -4.31881        2.85034       -0.67148
C         -4.76273        4.16765       -0.68318
C         -5.60940        4.63013        0.32139
C         -6.00625        3.77602        1.34625
C         -5.55086        2.46232        1.37874
C         -2.88775       -1.17363        0.38762
C         -4.26524       -1.60736        0.38117
C         -4.72619       -2.94761        0.37489
N         -5.06391       -4.05734        0.37111
C         -5.04042       -0.47221        0.37610
C         -6.46142       -0.39310        0.35031
N         -7.61871       -0.33859        0.33601
C         -1.69401       -1.84670        0.40260
C         -0.48335       -1.10572        0.42098
C          0.76037       -1.74886        0.43466
C          1.95891       -1.03838        0.45930
C          3.21957       -1.70184        0.47317
C          4.37143       -0.96685        0.49808
C          5.74274       -1.42118        0.51569
F          6.02083       -2.72657        0.50819
C          6.66464       -0.44600        0.53922
C          4.32679        0.46895        0.51052
S          5.94888        1.15714        0.54253
C          3.14136        1.14219        0.49791
C          1.91835        0.40541        0.47170
H          0.65271        2.13659        0.46699
H         -1.81012        2.09982        0.43173
H         -3.67787        2.46944       -1.46036
H         -4.45757        4.82917       -1.48765
H         -5.96187        5.65650        0.30369
H         -6.66617        4.13280        2.13024
H         -5.84047        1.79462        2.18375
H         -1.66618       -2.93254        0.40479
H          0.78996       -2.83584        0.42651
H          3.25782       -2.78703        0.46403
H          7.73821       -0.56797        0.55523
H          3.10545        2.22772        0.50755
