46
syn_C_NPh_3-CN_3-CN.log	Energy: -778011.0930635
C         -2.40238        1.29565        0.50424
C         -3.60432        0.59975        0.60991
C         -4.84308        1.28619        0.78737
C         -5.98445        0.54501        0.87811
N         -7.30959        0.94784        1.06550
C         -7.77700        2.28330        1.17636
C         -7.42706        3.22497        0.20899
C         -7.89431        4.52952        0.32252
C         -8.72246        4.89027        1.38250
C         -9.07720        3.94221        2.33801
C         -8.59753        2.63991        2.24505
C         -5.97915       -0.89264        0.82638
C         -7.35978       -1.30589        0.99830
C         -7.84904       -2.63659        1.00819
N         -8.22608       -3.73429        1.01404
C         -8.10331       -0.16904        1.13883
C         -4.80859       -1.57483        0.65657
C         -3.58708       -0.84827        0.53738
C         -2.37070       -1.50412        0.35965
C         -1.16162       -0.80400        0.25098
C          0.07107       -1.46954        0.07041
C          1.25697       -0.76948       -0.03403
C          2.53766       -1.42011       -0.21965
C          2.58912       -2.85146       -0.30066
N          2.61422       -4.00919       -0.36431
C          3.69229       -0.69640       -0.31860
C          1.24521        0.67247        0.04220
C          2.48751        1.38390       -0.06762
C          3.66518        0.72815       -0.24104
C          0.04322        1.33398        0.21851
C         -1.17828        0.63568        0.32676
H         -2.41193        2.38180        0.56057
H         -4.85457        2.36927        0.85370
H         -6.80673        2.92758       -0.63043
H         -7.62175        5.26250       -0.43028
H         -9.09082        5.90798        1.46312
H         -9.71842        4.21830        3.16912
H         -8.84339        1.90284        3.00358
H         -9.17197       -0.06724        1.26731
H         -4.79531       -2.66030        0.61825
H         -2.35787       -2.58997        0.30461
H          0.07739       -2.55505        0.01372
H          4.63796       -1.20976       -0.45737
H          2.46452        2.46877       -0.00828
H          4.59674        1.27812       -0.32244
H          0.03554        2.42009        0.27578
