36
syn_C_S_3-Cl_3-CF3.log	Energy: -1232311.1732896
C         -2.39238        1.37597        0.22512
C         -3.58942        0.68685        0.38811
C         -4.84359        1.36973        0.44264
C         -5.98818        0.64998        0.60354
S         -7.63145        1.27944        0.69695
C         -5.97774       -0.78581        0.72154
C         -7.32815       -1.29717        0.88355
C         -7.63532       -2.75088        1.03156
F         -7.20851       -3.45393       -0.03356
F         -7.02165       -3.27550        2.10815
F         -8.95054       -2.97517        1.16502
C         -8.26689       -0.33159        0.88674
C         -4.79099       -1.46365        0.67245
C         -3.56516       -0.75425        0.50518
C         -2.34379       -1.41915        0.45194
C         -1.13409       -0.72784        0.28754
C          0.10468       -1.40188        0.23334
C          1.29481       -0.71720        0.07112
C          2.58603       -1.35796        0.00920
Cl         2.67861       -3.10024        0.14415
C          3.73449       -0.65258       -0.15079
C          1.27326        0.72592       -0.04601
C          2.50970        1.43594       -0.21414
C          3.69210        0.77258       -0.26435
C          0.06163        1.39252        0.00640
C         -1.15940        0.70754        0.17116
H         -2.40952        2.45982        0.13702
H         -4.86076        2.45209        0.35458
H         -9.33365       -0.47539        0.99323
H         -4.76632       -2.54524        0.75969
H         -2.32480       -2.50282        0.53984
H          0.11166       -2.48323        0.32218
H          4.68659       -1.16977       -0.19279
H          2.47512        2.51827       -0.30025
H          4.62439        1.31326       -0.39159
H          0.04859        2.47642       -0.08188
