34
syn_S_O_3-Cl_3-OMe.log	Energy: -1091319.4312831
C          0.10506        1.51535        0.31450
C         -0.98471        0.65027        0.19338
C         -2.32483        1.14431        0.17880
C         -3.32730        0.23542        0.06166
O         -4.66354        0.51514        0.01402
C         -3.11164       -1.17239       -0.04308
C         -4.44832       -1.73182       -0.14978
O         -4.77840       -3.03806       -0.30678
C         -4.54887       -3.82690        0.85249
C         -5.30456       -0.69103       -0.10561
C         -1.83906       -1.67222       -0.04700
C         -0.74031       -0.77047        0.07539
C          0.57837       -1.23109        0.08316
C          1.66706       -0.36431        0.20416
C          3.00604       -0.84590        0.21225
C          4.04922        0.03142        0.33352
C          5.47579       -0.22611        0.36598
Cl         6.12265       -1.83031        0.24427
C          6.23393        0.87730        0.49695
C          3.79567        1.44063        0.45273
S          5.29669        2.35081        0.59521
C          2.52725        1.94307        0.44894
C          1.42234        1.05092        0.32405
H         -0.07838        2.58367        0.40338
H         -2.52522        2.20781        0.25355
H         -4.81294       -4.85135        0.58620
H         -5.17809       -3.48714        1.68435
H         -3.49803       -3.78957        1.16390
H         -6.38125       -0.64921       -0.16361
H         -1.64860       -2.73638       -0.15207
H          0.76365       -2.29907       -0.00751
H          3.19231       -1.91233        0.12154
H          7.31349        0.91927        0.54316
H          2.34068        3.00939        0.53907
