47
syn_O_NPh_3-F_benz.log	Energy: -819535.9119819
C         -3.48755        1.23329       -0.18846
C         -2.17436        0.76579       -0.12159
C         -1.06610        1.66354       -0.05645
C          0.19342        1.14293        0.01159
N          1.42314        1.79663        0.06872
C          1.60570        3.20006        0.08771
C          0.99446        3.96883        1.07889
C          1.16745        5.34864        1.08815
C          1.96514        5.96286        0.12606
C          2.58214        5.19188       -0.85557
C          2.39571        3.81394       -0.88482
C          0.43845       -0.27738        0.00187
C          1.88214       -0.44666        0.05693
C          2.70873       -1.56545        0.08590
C          4.08574       -1.38511        0.15755
C          2.44376        0.84360        0.09537
C          3.81968        1.03569        0.17897
C          4.62792       -0.09663        0.20681
C         -0.60522       -1.15249       -0.05990
C         -1.94398       -0.65940       -0.11950
C         -3.03618       -1.52338       -0.18123
C         -4.35383       -1.05709       -0.24693
C         -5.45538       -1.95784       -0.30952
C         -6.72163       -1.44504       -0.37312
C         -8.05632       -1.98472       -0.44622
F         -8.35657       -3.28104       -0.46896
C         -8.92135       -0.95596       -0.48611
C         -6.93145       -0.03380       -0.37664
O         -8.26774        0.25027       -0.44528
C         -5.92008        0.87246       -0.31884
C         -4.58579        0.36955       -0.25139
H         -3.66400        2.30658       -0.19201
H         -1.24180        2.73456       -0.06752
H          0.39279        3.47788        1.83739
H          0.68745        5.94370        1.85909
H          2.10512        7.03925        0.14109
H          3.20062        5.66527       -1.61202
H          2.85241        3.20711       -1.66056
H          2.28242       -2.56416        0.05630
H          4.74421       -2.24748        0.17953
H          4.24743        2.03145        0.22723
H          5.70491        0.02720        0.27110
H         -0.43616       -2.22622       -0.07012
H         -2.85928       -2.59688       -0.17928
H         -5.27960       -3.02926       -0.30624
H         -9.99732       -0.91611       -0.54255
H         -6.11140        1.94024       -0.32353
