34
syn_C_S_diF_3-CN.log	Energy: -914843.0880845
C         -2.41393        1.35800        0.26534
C         -3.61022        0.66593        0.41905
C         -4.86333        1.34999        0.49209
C         -6.00765        0.62784        0.64308
S         -7.65304        1.25138        0.75640
C         -5.99243       -0.80792        0.73154
C         -7.34336       -1.32847        0.88936
C         -7.62892       -2.72139        1.00319
N         -7.82547       -3.86075        1.09308
C         -8.28777       -0.35739        0.91625
C         -4.81070       -1.48949        0.66479
C         -3.58444       -0.77787        0.50692
C         -2.36354       -1.44132        0.43566
C         -1.15398       -0.74708        0.28067
C          0.08524       -1.41746        0.20831
C          1.26560       -0.71462        0.05568
C          2.53441       -1.37394       -0.02002
F          2.56231       -2.70923        0.06078
C          3.68429       -0.67105       -0.16975
F          4.86001       -1.30399       -0.23851
C          1.24997        0.72736       -0.03294
C          2.49531        1.42627       -0.19124
C          3.67149        0.75103       -0.25738
C          0.03659        1.38843        0.03752
C         -1.18031        0.69212        0.19318
H         -2.43171        2.44339        0.19918
H         -4.87929        2.43386        0.42580
H         -9.35420       -0.50549        1.02459
H         -4.79558       -2.57415        0.73130
H         -2.34449       -2.52644        0.50178
H          0.10853       -2.50037        0.27382
H          2.47993        2.50976       -0.25752
H          4.62162        1.26009       -0.37669
H          0.01681        2.47372       -0.02845
