48
syn_S_NPh_3-OMe_3-CF3.log	Energy: -1146861.6300695
C         -0.95059        1.29690        0.53651
C         -1.82248        0.20292        0.56319
C         -3.22515        0.37963        0.73141
C         -4.02201       -0.73101        0.74180
N         -5.40367       -0.85105        0.90373
C         -6.33217        0.20553        1.07162
C         -6.32529        1.28953        0.19336
C         -7.24568        2.31767        0.36382
C         -8.18485        2.25931        1.39039
C         -8.19527        1.16908        2.25580
C         -7.26416        0.14676        2.10719
C         -3.49169       -2.06092        0.61581
C         -4.62325       -2.95463        0.71735
C         -4.58509       -4.43165        0.63174
F         -4.07937       -4.85552       -0.54314
F         -3.80697       -4.97162        1.59075
F         -5.81237       -4.96736        0.75977
C         -5.73058       -2.19000        0.89089
C         -2.14591       -2.25321        0.45323
C         -1.27772       -1.12730        0.41657
C          0.10292       -1.27776        0.24930
C          0.96933       -0.18500        0.22123
C          2.37425       -0.34840        0.05022
C          3.19089        0.74726        0.02893
C          4.63427        0.79342       -0.13265
O          5.28707       -0.37720       -0.28370
C          6.68705       -0.28844       -0.43664
C          5.13919        2.04656       -0.10813
C          2.64473        2.06599        0.17782
S          3.90973        3.28750        0.11356
C          1.30588        2.26699        0.34377
C          0.42595        1.14328        0.37030
H         -1.35999        2.29849        0.64877
H         -3.63084        1.37849        0.85577
H         -5.61243        1.31270       -0.62454
H         -7.23756        3.16065       -0.32017
H         -8.90623        3.06064        1.51496
H         -8.92108        1.11871        3.06148
H         -7.24545       -0.69007        2.79888
H         -6.76309       -2.49518        0.98565
H         -1.73279       -3.25296        0.35969
H          0.51297       -2.27912        0.13861
H          2.79187       -1.34451       -0.06268
H          7.14920        0.17639        0.44400
H          6.94799        0.29236       -1.33092
H          7.05145       -1.31021       -0.54471
H          6.17211        2.34824       -0.20605
H          0.89279        3.26537        0.45665
