44
syn_S_NPh_3-Cl_3-CF3.log	Energy: -1363409.8830797
C         -0.94088        1.26631        0.86042
C         -1.91966        0.28036        0.69662
C         -3.30422        0.58527        0.82603
C         -4.20852       -0.42618        0.65995
N         -5.60289       -0.40910        0.71285
C         -6.42657        0.70984        0.99120
C         -6.17448        1.50252        2.11114
C         -6.99311        2.59423        2.37805
C         -8.07227        2.88497        1.54730
C         -8.32650        2.08272        0.43849
C         -7.49989        1.00199        0.15054
C         -3.81169       -1.76955        0.33615
C         -5.03519       -2.52632        0.19788
C         -5.14345       -3.96933       -0.11403
F         -4.54604       -4.73371        0.82083
F         -6.42675       -4.36291       -0.19741
F         -4.54907       -4.27528       -1.28419
C         -6.06676       -1.67522        0.42690
C         -2.48573       -2.08417        0.20666
C         -1.50545       -1.06984        0.38973
C         -0.14025       -1.34825        0.27002
C          0.83388       -0.36311        0.43598
C          2.22135       -0.65804        0.31212
C          3.15020        0.33185        0.48012
C          4.59690        0.26650        0.40241
Cl         5.43195       -1.21252        0.05387
C          5.21624        1.43987        0.62286
C          2.72855        1.67273        0.78200
S          4.10902        2.75454        0.94931
C          1.41042        1.99787        0.90915
C          0.42007        0.98499        0.73938
H         -1.25143        2.28333        1.08940
H         -3.61392        1.60266        1.04208
H         -5.35163        1.25052        2.77235
H         -6.79457        3.21040        3.24949
H         -8.71312        3.73371        1.76394
H         -9.16299        2.30595       -0.21634
H         -7.67283        0.39197       -0.73097
H         -7.12881       -1.87586        0.43364
H         -2.17374       -3.09404       -0.04146
H          0.17081       -2.36456        0.03940
H          2.53414       -1.67300        0.08368
H          6.28232        1.62079        0.61407
H          1.09727        3.01273        1.13721
