54
syn_S_NPh_2-CF3_m-OMebenz.log	Energy: -1243247.3040610
C         -3.42390        1.52542       -0.21317
C         -2.13258        0.99709       -0.19214
C         -0.98537        1.83919       -0.07434
C          0.24955        1.26068       -0.05585
N          1.50707        1.85626        0.03588
C          1.74995        3.24578        0.15516
C          1.19173        3.96189        1.21451
C          1.42479        5.32862        1.32319
C          2.22984        5.97983        0.39200
C          2.79343        5.26058       -0.65865
C          2.54664        3.89777       -0.78673
C          0.43532       -0.16554       -0.16789
C          1.86894       -0.39440       -0.13671
C          2.66455       -1.53888       -0.19091
C          4.04012       -1.41727       -0.11755
C          2.48381        0.86108       -0.01236
C          3.86654        1.01141        0.07493
C          4.63686       -0.15010        0.01846
O          5.99048       -0.15804        0.08929
C          6.65694        1.07604        0.23011
C         -0.64677       -0.98754       -0.28120
C         -1.96334       -0.43386       -0.29318
C         -3.09235       -1.24358       -0.40554
C         -4.38727       -0.71366       -0.42546
C         -5.53321       -1.54582       -0.54093
C         -6.79002       -0.99660       -0.55917
C         -8.06950       -1.65932       -0.66919
C         -9.10517       -0.79899       -0.65460
C        -10.55051       -1.16798       -0.75220
F        -10.70160       -2.49612       -0.85614
F        -11.23982       -0.76197        0.32656
F        -11.13424       -0.60574       -1.82307
C         -6.94448        0.42901       -0.46062
S         -8.64177        0.89011       -0.50706
C         -5.87086        1.26476       -0.34791
C         -4.55691        0.71367       -0.32707
H         -3.55359        2.60288       -0.13913
H         -1.11356        2.91496       -0.00739
H          0.58330        3.44031        1.94673
H          0.98572        5.88344        2.14669
H          2.41629        7.04526        0.48419
H          3.41593        5.76418       -1.39197
H          2.96016        3.33231       -1.61615
H          2.21044       -2.52077       -0.28750
H          4.68811       -2.28548       -0.15821
H          4.30831        1.99296        0.19062
H          7.72123        0.84081        0.26403
H          6.36843        1.58552        1.15844
H          6.45947        1.73921       -0.62209
H         -0.52586       -2.06415       -0.36855
H         -2.96339       -2.32120       -0.48133
H         -5.40220       -2.62238       -0.61504
H         -8.18626       -2.73262       -0.75471
H         -5.99490        2.34134       -0.27410
