43
syn_C_S_2-CF3_m-CNbenz.log	Energy: -1098169.1530479
C         -3.28617        0.99004        1.28071
C         -1.98617        0.64131        0.93851
C         -0.85927        1.12721        1.67595
C          0.39544        0.75926        1.30344
S          1.89980        1.25246        2.08372
C          0.63105       -0.11249        0.17930
C          2.05568       -0.35759       -0.01828
C          2.67382       -1.14096       -0.99428
C          4.05421       -1.25215       -1.02027
C          2.84612        0.31236        0.93116
C          4.23047        0.21229        0.92031
C          4.82944       -0.57686       -0.06489
C          6.26048       -0.69746       -0.09853
N          7.41499       -0.79646       -0.12765
C         -0.42544       -0.58966       -0.53976
C         -1.76422       -0.23364       -0.19004
C         -2.85459       -0.70808       -0.90866
C         -4.17168       -0.35872       -0.56718
C         -5.28339       -0.83569       -1.29170
C         -6.57639       -0.48350       -0.94622
C         -7.71151       -0.96517       -1.68048
C         -8.96998       -0.60472       -1.32278
C        -10.16871       -1.09604       -2.08209
F         -9.84135       -1.91281       -3.09442
F        -11.01142       -1.76890       -1.27707
F        -10.86828       -0.07039       -2.60135
C         -6.80000        0.39076        0.17951
C         -8.15310        0.74062        0.51521
C         -9.19910        0.26479       -0.20402
C         -5.71678        0.86460        0.89853
C         -4.39371        0.51429        0.55790
H         -3.45500        1.64853        2.12949
H         -1.02925        1.78440        2.52368
H          2.07627       -1.66417       -1.73426
H          4.54454       -1.85790       -1.77408
H          4.84218        0.72850        1.65215
H         -0.26758       -1.24799       -1.39014
H         -2.68715       -1.36671       -1.75784
H         -5.11589       -1.49466       -2.14054
H         -7.54539       -1.62289       -2.52735
H         -8.32224        1.39874        1.36280
H        -10.21769        0.53346        0.05588
H         -5.88433        1.52354        1.74732
