62
syn_NPh_NPh_3-CN_p-CF3benz.log	Energy: -1159078.6657493
C         -3.76266        0.40165        0.44701
C         -2.40189        0.17675        0.24465
C         -1.43453        1.20382        0.47023
C         -0.11866        0.91652        0.25925
N          1.00321        1.73740        0.39366
C          0.98407        3.09037        0.81448
C          0.43623        3.42494        2.05292
C          0.41044        4.75482        2.45878
C          0.94742        5.74795        1.64350
C          1.50187        5.40878        0.41216
C          1.51159        4.08366       -0.01050
C          0.32320       -0.37692       -0.19591
C          1.76911       -0.29283       -0.32667
C          2.74045       -1.20924       -0.70866
C          4.07179       -0.80930       -0.71081
C          5.16054       -1.75340       -1.12950
F          4.69628       -2.98635       -1.39140
F          5.79297       -1.32267       -2.23832
F          6.10548       -1.87551       -0.17754
C          2.13811        1.01481        0.04325
C          3.47230        1.41875        0.05351
C          4.42904        0.49108       -0.32931
C         -0.58140       -1.37190       -0.41925
C         -1.97176       -1.12781       -0.20306
C         -2.92560       -2.12008       -0.42013
C         -4.29268       -1.89610       -0.21807
C         -5.25361       -2.91689       -0.45490
C         -6.57908       -2.65229       -0.24070
C         -7.79254       -3.43223       -0.39762
C         -7.88194       -4.77992       -0.82894
N         -7.92963       -5.88360       -1.18548
C         -8.83611       -2.62627       -0.04041
C         -6.99304       -1.36021        0.22467
N         -8.38606       -1.38712        0.34023
C         -9.21712       -0.32153        0.77184
C         -8.93307        0.34258        1.96501
C         -9.75629        1.38165        2.38387
C        -10.86921        1.74540        1.62980
C        -11.15365        1.07058        0.44603
C        -10.32400        0.04389        0.00753
C         -6.10808       -0.34234        0.44821
C         -4.72414       -0.59348        0.23191
H         -4.08973        1.38315        0.78323
H         -1.75968        2.18641        0.79725
H          0.04002        2.63991        2.68940
H         -0.01873        5.01320        3.42196
H          0.93352        6.78406        1.96699
H          1.91684        6.17945       -0.23007
H          1.91913        3.81144       -0.97928
H          2.46903       -2.21907       -0.99591
H          3.75613        2.42053        0.35642
H          5.47647        0.77585       -0.32997
H         -0.26375       -2.35202       -0.76534
H         -2.59939       -3.10080       -0.75932
H         -4.93026       -3.89177       -0.80904
H         -9.89210       -2.85503       -0.00502
H         -8.08164        0.03260        2.56225
H         -9.53432        1.89845        3.31232
H        -11.51317        2.55251        1.96427
H        -12.01671        1.35217       -0.14902
H        -10.52079       -0.46562       -0.93096
H         -6.43397        0.64028        0.77384
