43
syn_S_O_p-CF3benz_2-OMe.log	Energy: -1110768.1702387
C         -3.60360        1.10086        0.00013
C         -4.62469        0.14907        0.00121
C         -6.00120        0.53821        0.00133
C         -6.92435       -0.45182        0.00241
O         -8.28783       -0.27458        0.00269
C         -6.62260       -1.85147        0.00343
C         -7.90308       -2.51943        0.00441
C         -8.82515       -1.52920        0.00388
O        -10.14596       -1.61792        0.00429
C        -10.89743       -0.40653        0.00442
C         -5.31153       -2.24361        0.00334
C         -4.28151       -1.25421        0.00222
C         -2.93059       -1.61111        0.00208
C         -1.91010       -0.65808        0.00100
C         -0.53534       -1.03270        0.00087
C          0.44562       -0.08089       -0.00016
C          1.89418       -0.25821       -0.00044
C          2.61928       -1.44917        0.00029
C          4.00527       -1.40424       -0.00014
C          4.81836       -2.66824        0.00097
F          4.05142       -3.76990       -0.00004
F          5.62121       -2.73778       -1.07681
F          5.61828       -2.73778        1.08093
C          2.58165        0.96525       -0.00160
C          3.97450        1.01344       -0.00203
C          4.68120       -0.17833       -0.00129
C          0.08583        1.31014       -0.00114
S          1.50693        2.35958       -0.00239
C         -1.21480        1.71569       -0.00108
C         -2.25530        0.73860        0.00000
H         -3.86680        2.15643       -0.00063
H         -6.28240        1.58602        0.00058
H         -8.10958       -3.57778        0.00534
H        -11.94128       -0.71797        0.00496
H        -10.68361        0.18634       -0.88908
H        -10.68277        0.18667        0.89750
H         -5.03815       -3.29478        0.00409
H         -2.66588       -2.66636        0.00283
H         -0.28178       -2.09003        0.00162
H          2.10633       -2.40477        0.00116
H          4.49949        1.96308       -0.00295
H          5.76638       -0.16247       -0.00165
H         -1.47905        2.76945       -0.00184
