45
syn_O_NPh_2-CN_2-CF3.log	Energy: -930198.2096943
C          0.42879       -0.80053        0.13835
C          1.65529       -0.12644        0.15761
C          2.88799       -0.83269        0.10794
C          4.04855       -0.10823        0.12841
N          5.36451       -0.54738        0.09834
C          5.75234       -1.91237       -0.03528
C          5.47164       -2.58481       -1.22328
C          5.81781       -3.92505       -1.35186
C          6.45115       -4.58638       -0.30224
C          6.72947       -3.90837        0.88115
C          6.37134       -2.57163        1.02318
C          4.06978        1.32806        0.20347
C          5.45723        1.71677        0.20662
C          6.18535        0.57453        0.14006
C          7.67587        0.46613        0.10607
F          8.16729       -0.10399        1.22232
F          8.09967       -0.27072       -0.93180
F          8.22771        1.68110        0.00232
C          2.88947        2.02415        0.25382
C          1.65549        1.31814        0.23068
C          0.43112        1.99189        0.27825
C         -0.79164        1.31862        0.25817
C         -2.02641        2.02905        0.30745
C         -3.20056        1.32549        0.28554
C         -4.60228        1.67055        0.31858
C         -5.26945        0.49594        0.26761
C         -6.67033        0.24525        0.27082
N         -7.81591        0.06978        0.27482
C         -3.17113       -0.10248        0.21411
O         -4.44679       -0.59790        0.20381
C         -2.03152       -0.83770        0.16476
C         -0.79156       -0.12755        0.18605
H          0.42838       -1.88670        0.08461
H          2.89383       -1.91699        0.05659
H          4.98883       -2.05040       -2.03545
H          5.60098       -4.45045       -2.27666
H          6.72697       -5.63111       -0.40691
H          7.21900       -4.42257        1.70221
H          6.57025       -2.03526        1.94404
H          5.85583        2.71910        0.24680
H          2.88176        3.10910        0.31251
H          0.43195        3.07837        0.33301
H         -2.01774        3.11381        0.36152
H         -5.04794        2.65278        0.37260
H         -2.05115       -1.92069        0.11131
