30
syn_S_S_3-Cl_3-Cl.log	Energy: -1510548.5071044
C         -0.11611        1.48703        0.72403
C         -1.23875        0.68716        0.49971
C         -2.56040        1.21137        0.60337
C         -3.62551        0.39002        0.37507
S         -5.33117        0.82042        0.44757
C         -3.45063       -0.99440        0.03170
C         -4.73958       -1.63213       -0.15501
Cl        -4.88316       -3.30681       -0.57782
C         -5.79149       -0.81397        0.02815
C         -2.19284       -1.52238       -0.07426
C         -1.05368       -0.70098        0.15552
C          0.24412       -1.20752        0.05563
C          1.36733       -0.40811        0.27966
C          2.68635       -0.93203        0.17554
C          3.76516       -0.12143        0.40159
C          5.18085       -0.43185        0.35281
Cl         5.76028       -2.01880       -0.03437
C          5.98412        0.61053        0.63156
C          3.57025        1.26034        0.74479
S          5.10845        2.08304        0.98382
C          2.32295        1.80194        0.85464
C          1.18129        0.97983        0.62413
H         -0.25607        2.53384        0.98375
H         -2.69777        2.25717        0.86277
H         -6.83720       -1.07533       -0.05917
H         -2.05537       -2.56827       -0.33353
H          0.38407       -2.25423       -0.20400
H          2.82860       -1.97721       -0.08404
H          7.06531        0.60647        0.65301
H          2.18074        2.84705        1.11418
