40
syn_C_S_p-CNbenz_3-Cl.log	Energy: -1174933.6631340
C         -1.73169        0.60543       -0.76793
C         -2.85047       -0.05128       -0.24976
C         -4.12565        0.04428       -0.87894
C         -5.18988       -0.61426       -0.33544
S         -6.84236       -0.63679       -0.93965
C         -5.05925       -1.40388        0.85813
C         -6.33627       -1.98981        1.21512
Cl        -6.52440       -3.00262        2.60840
C         -7.33965       -1.67664        0.37523
C         -3.84568       -1.51253        1.48125
C         -2.70976       -0.84286        0.94778
C         -1.45540       -0.93483        1.55688
C         -0.33897       -0.28047        1.03521
C          0.94221       -0.38164        1.64290
C          2.02513        0.26143        1.10471
C          3.37587        0.20451        1.58578
C          3.13348       -4.28995        0.55098
C          2.72742       -3.15901        0.06026
C          2.09628       -2.44561       -0.97034
N          1.58321       -1.84179       -1.81872
C          4.41348        0.82719        1.00351
C          4.68091       -0.01121        2.13775
C          3.43707       -3.08694        1.39476
C          1.89352        1.07100       -0.09529
C          3.06144        1.73709       -0.67348
C          4.31790        1.64931       -0.16608
C          0.66034        1.17690       -0.68962
C         -0.47940        0.51308       -0.15833
H         -1.83739        1.19867       -1.67293
H         -4.22857        0.63904       -1.78181
H         -8.36886       -2.00057        0.44768
H         -3.74183       -2.10870        2.38327
H         -1.34719       -1.53273        2.45869
H          1.06389       -0.98158        2.54042
H          3.21421       -5.36010        0.44302
H          4.45057       -2.68737        1.44152
H          2.84871       -2.89701        2.29425
H          2.88226        2.32304       -1.57247
H          5.16336        2.15148       -0.62421
H          0.54131        1.76267       -1.59782
