51
syn_S_NPh_tetFbenz_3-OMe.log	Energy: -1280802.7939366
C         -3.55688        1.12983        0.02402
C         -4.60177        0.19524        0.00322
C         -5.96146        0.60958        0.00407
C         -6.93993       -0.35032       -0.02417
N         -8.32093       -0.23902       -0.01138
C         -9.07853        0.94932        0.03098
C         -8.77609        2.01108       -0.82486
C         -9.53214        3.17685       -0.77498
C        -10.60624        3.28519        0.10432
C        -10.91655        2.21860        0.94348
C        -10.15185        1.05776        0.91786
C         -6.61913       -1.75233       -0.02018
C         -7.87935       -2.45556        0.00709
O         -7.93648       -3.80366        0.00314
C         -9.23880       -4.34322        0.02404
C         -8.87222       -1.52972        0.02160
C         -5.31804       -2.17527       -0.02332
C         -4.27338       -1.21166       -0.01885
C         -2.92690       -1.59467       -0.02356
C         -1.89359       -0.66040       -0.00498
C         -0.52529       -1.06295       -0.00936
C          0.47105       -0.12718        0.01077
C          1.91741       -0.31660        0.01096
C          2.65213       -1.49756       -0.00930
F          2.04156       -2.68664       -0.03327
C          4.03949       -1.46881       -0.00511
F          4.73565       -2.60308       -0.02461
C          2.61204        0.90470        0.03579
C          3.99645        0.93927        0.04006
F          4.65061        2.10195        0.06368
C          4.71323       -0.24952        0.01954
F          6.04257       -0.23244        0.02324
C          0.13286        1.27261        0.03636
S          1.56299        2.31324        0.05976
C         -1.15844        1.70083        0.04131
C         -2.21969        0.74265        0.02064
H         -3.80042        2.18981        0.04294
H         -6.19801        1.66784        0.03848
H         -7.96493        1.90936       -1.53833
H         -9.28946        3.99837       -1.44224
H        -11.19874        4.19412        0.13384
H        -11.74951        2.29430        1.63593
H        -10.37023        0.23842        1.59606
H         -9.12867       -5.42792        0.02551
H         -9.80748       -4.03252       -0.86312
H         -9.78030       -4.02719        0.92632
H         -9.94506       -1.64968        0.00868
H         -5.07892       -3.23449       -0.01882
H         -2.68187       -2.65437       -0.04062
H         -0.28902       -2.12098       -0.02857
H         -1.40312        2.75898        0.06093
