53
syn_C_NPh_diCl_m-CF3benz.log	Energy: -1546896.4162832
C         -3.47634        1.31869       -0.06339
C         -2.17298        0.83377       -0.06977
C         -1.04935        1.71296        0.02837
C          0.20247        1.17485        0.02081
N          1.44179        1.80838        0.09107
C          1.64581        3.20559        0.21340
C          1.08989        3.89680        1.28993
C          1.28546        5.26897        1.40269
C          2.05067        5.94862        0.45833
C          2.61229        5.25321       -0.60916
C          2.40245        3.88463       -0.74145
C          0.42865       -0.24580       -0.09899
C          1.87098       -0.43303       -0.09642
C          2.68613       -1.55750       -0.16894
C          4.06461       -1.39715       -0.12077
C          2.44700        0.84621        0.02019
C          3.82431        1.02191        0.08107
C          4.61820       -0.11822        0.00617
C          6.11653        0.02503        0.00399
F          6.71216       -0.96414        0.69164
F          6.61219       -0.01767       -1.24685
F          6.51616        1.18801        0.54495
C         -0.62397       -1.10449       -0.19423
C         -1.96029       -0.59537       -0.17913
C         -3.05728       -1.44399       -0.27173
C         -4.37375       -0.95574       -0.26382
C         -5.48591       -1.81835       -0.35755
C         -6.78212       -1.33449       -0.35027
C         -7.94552       -2.18860       -0.44428
Cl        -7.71360       -3.90674       -0.57235
C         -9.20106       -1.65746       -0.43268
Cl       -10.62470       -2.64752       -0.54344
C         -6.99727        0.09106       -0.24410
C         -8.34056        0.59323       -0.23692
C         -9.40144       -0.24337       -0.32733
C         -5.91108        0.94302       -0.15174
C         -4.58596        0.46350       -0.15759
H         -3.64337        2.39039        0.01660
H         -1.21061        2.78366        0.10210
H          0.51431        3.35292        2.03243
H          0.84979        5.80560        2.23982
H          2.20939        7.01811        0.55451
H          3.20611        5.77860       -1.35061
H          2.81613        3.33744       -1.58302
H          2.25232       -2.54896       -0.25594
H          4.71682       -2.26168       -0.17189
H          4.26653        2.00482        0.19230
H         -0.46831       -2.17607       -0.28690
H         -2.89378       -2.51619       -0.35346
H         -5.30697       -2.88516       -0.43686
H         -8.49484        1.66528       -0.15712
H        -10.41848        0.13171       -0.32235
H         -6.08358        2.01387       -0.07238
