47
syn_C_S_2-OMe_m-OMebenz.log	Energy: -972552.8537672
C         -3.30026        0.37182        1.56917
C         -1.99319        0.30076        1.10441
C         -0.87346        0.51196        1.97141
C          0.38770        0.43200        1.47080
S          1.88630        0.66000        2.37755
C          0.64134        0.13855        0.08133
C          2.07124        0.10835       -0.20374
C          2.72051       -0.13912       -1.41812
C          4.09964       -0.12384       -1.48610
C          2.85110        0.36905        0.92829
C          4.24390        0.38989        0.88474
C          4.86541        0.14011       -0.33773
O          6.20758        0.12967       -0.52145
C          7.03379        0.38665        0.59223
C         -0.40988       -0.06635       -0.76405
C         -1.75657        0.00613       -0.28976
C         -2.84133       -0.19934       -1.13444
C         -4.16586       -0.12896       -0.67135
C         -5.27239       -0.33635       -1.52267
C         -6.57449       -0.26532       -1.05821
C         -7.70271       -0.47618       -1.92364
C         -8.97155       -0.39839       -1.43118
O        -10.10927       -0.57645       -2.14430
C         -9.97868       -0.86916       -3.51708
C         -6.80465        0.02918        0.33597
C         -8.16435        0.09871        0.79967
C         -9.20375       -0.10532       -0.04284
C         -5.73059        0.23475        1.18175
C         -4.39947        0.16482        0.71929
H         -3.48074        0.59352        2.61883
H         -1.05451        0.73346        3.01941
H          2.14078       -0.34470       -2.31340
H          4.62118       -0.31327       -2.41778
H          4.81469        0.59554        1.78234
H          8.05893        0.33005        0.22498
H          6.88974       -0.36304        1.38074
H          6.85183        1.38714        1.00511
H         -0.24064       -0.28867       -1.81470
H         -2.66186       -0.42111       -2.18427
H         -5.09002       -0.55783       -2.57206
H         -7.50788       -0.69605       -2.96751
H        -10.99320       -0.97393       -3.90290
H         -9.42924       -1.80633       -3.67397
H         -9.46668       -0.05780       -4.05033
H         -8.34380        0.32003        1.84835
H        -10.23346       -0.05546        0.29527
H         -5.91140        0.45637        2.23149
