45
syn_C_C_diF_m-CF3benz.log	Energy: -963518.5564494
C         -2.11744       -1.41256       -0.93923
C         -3.10161       -0.57580       -0.42051
C         -4.48551       -0.78724       -0.65751
C         -5.44814        0.04510       -0.14058
C         -6.85025       -0.19891       -0.40193
C         -7.80677        0.60524        0.09496
C         -5.06744        1.18144        0.67522
C         -6.12788        2.04947        1.21037
C         -5.85669        3.17379        2.01045
C         -6.87006        3.97206        2.49917
C         -7.47632        1.75256        0.91529
C         -8.49952        2.57182        1.41822
C         -8.20400        3.66892        2.20057
C         -9.28850        4.54892        2.75580
F         -9.10399        5.83407        2.40351
F        -10.50961        4.18745        2.33257
F         -9.30399        4.51675        4.10078
C         -3.73255        1.39923        0.91347
C         -2.71657        0.55220        0.38968
C         -1.36648        0.78407        0.63841
C         -0.36904       -0.05440        0.11919
C          1.00120        0.17512        0.36739
C          1.96891       -0.66267       -0.15322
C          3.36453       -0.44835        0.08595
F          3.72689        0.59836        0.83737
C          4.30274       -1.27914       -0.43143
F          5.60161       -1.06279       -0.19708
C          1.59203       -1.79638       -0.96639
C          2.62433       -2.64715       -1.49153
C          3.93373       -2.39789       -1.23345
C          0.25055       -2.02560       -1.21262
C         -0.75592       -1.18397       -0.69202
H         -2.40918       -2.26348       -1.55056
H         -4.78593       -1.63585       -1.26794
H         -7.11171       -1.05651       -1.01572
H         -8.85575        0.40988       -0.10962
H         -4.83431        3.43478        2.25837
H         -6.63472        4.83528        3.11328
H         -9.53178        2.33345        1.18354
H         -3.40550        2.23845        1.51875
H         -1.07465        1.63511        1.24952
H          1.29585        1.02338        0.97671
H          2.33752       -3.49794       -2.10189
H          4.72708       -3.02794       -1.62038
H         -0.04089       -2.87665       -1.82373
