42
syn_C_S_m-CF3benz_diCl.log	Energy: -1617082.1425104
C         -2.62045        1.05139       -0.65107
C         -3.78654        0.62639       -0.01542
C         -5.03892        1.27172       -0.24455
C         -6.15104        0.82020        0.40013
S         -7.78298        1.46748        0.26166
C         -6.09982       -0.29266        1.30909
C         -7.41192       -0.57107        1.85959
Cl        -7.68593       -1.84791        2.98427
C         -8.36837        0.26344        1.40144
Cl       -10.02969        0.25024        1.81688
C         -4.91328       -0.92919        1.54674
C         -3.72476       -0.49184        0.89494
C         -2.49871       -1.12046        1.11620
C         -1.32964       -0.69402        0.47846
C         -0.08089       -1.33002        0.70023
C          1.07517       -0.91790        0.07769
C          2.37596       -1.56618        0.29705
C          2.54176       -2.66268        1.16273
C          3.77411       -3.25257        1.35010
C          3.51279       -1.07761       -0.38341
C          4.76291       -1.68622       -0.18439
C          4.89555       -2.76015        0.67046
C          6.22702       -3.41871        0.89957
F          6.18082       -4.73051        0.60471
F          7.20334       -2.87430        0.15711
F          6.60305       -3.32636        2.18802
C          1.00514        0.20367       -0.83278
C          2.20903        0.65207       -1.49673
C          3.39254        0.04813       -1.28526
C         -0.19687        0.83432       -1.06163
C         -1.39279        0.41945       -0.42726
H         -2.66533        1.89396       -1.33722
H         -5.08385        2.11302       -0.92998
H         -4.86860       -1.77050        2.23222
H         -2.45269       -1.96319        1.80218
H         -0.07207       -2.16732        1.39051
H          1.69291       -3.06658        1.70243
H          3.87631       -4.09813        2.02263
H          5.62884       -1.30154       -0.71323
H          2.13178        1.49637       -2.17624
H          4.28941        0.39532       -1.79071
H         -0.23434        1.67646       -1.74892
