69
syn_NPh_NPh_diOMe_m-CF3benz.log	Energy: -1244893.1817986
C         -3.65709        0.88777        0.19985
C         -2.30237        0.62677       -0.01359
C         -1.28461        1.45709        0.54676
C          0.02091        1.14280        0.30568
N          1.18590        1.79288        0.72169
C          1.23666        2.94230        1.54666
C          0.62032        2.92771        2.79838
C          0.66599        4.06043        3.60354
C          1.34217        5.19994        3.17502
C          1.96431        5.20785        1.92957
C          1.90348        4.08676        1.10858
C          0.39948        0.01651       -0.50604
C          1.85223        0.01665       -0.55865
C          2.78446       -0.81835       -1.16542
C          4.13800       -0.55306       -1.00438
C          2.28806        1.11816        0.20398
C          3.63970        1.38895        0.38438
C          4.55185        0.53873       -0.23305
C          6.02345        0.82871       -0.12056
F          6.74783       -0.29857       -0.00873
F          6.48329        1.47740       -1.20774
F          6.31137        1.59739        0.94364
C         -0.55662       -0.78962       -1.05264
C         -1.93607       -0.51232       -0.82056
C         -2.94276       -1.31467       -1.36086
C         -4.29917       -1.05360       -1.14854
C         -5.31654       -1.87701       -1.71102
C         -6.63213       -1.58252       -1.47508
C         -7.87186       -2.18727       -1.89419
O         -7.98368       -3.29219       -2.69502
C         -7.77853       -3.00503       -4.06926
C         -8.88553       -1.45264       -1.34492
O        -10.21555       -1.55586       -1.37289
C        -10.76379       -2.72741       -1.96329
C         -6.98313       -0.45512       -0.65356
N         -8.37347       -0.39979       -0.58707
C         -9.13301        0.48285        0.22194
C         -8.83067        0.60714        1.57826
C         -9.55524        1.49162        2.36981
C        -10.59469        2.23588        1.81883
C        -10.90193        2.09809        0.46766
C        -10.16791        1.23285       -0.33560
C         -6.04412        0.36832       -0.10302
C         -4.66665        0.08483       -0.33957
H         -3.93758        1.74579        0.80724
H         -1.56382        2.31877        1.14498
H          0.11502        2.02685        3.13214
H          0.18298        4.04651        4.57581
H          1.38402        6.07935        3.81005
H          2.48885        6.09465        1.58738
H          2.36384        4.09255        0.12536
H          2.45941       -1.67177       -1.75274
H          4.87913       -1.19527       -1.46694
H          3.97551        2.22236        0.98994
H         -0.28446       -1.64236       -1.66959
H         -2.66198       -2.17226       -1.96905
H         -5.03825       -2.73527       -2.31653
H         -7.81394       -3.95955       -4.59870
H         -6.80503       -2.52869       -4.23674
H         -8.56492       -2.34135       -4.45456
H        -11.83616       -2.67146       -1.77530
H        -10.34430       -3.62699       -1.50590
H        -10.57667       -2.74891       -3.04113
H         -8.03282        0.00686        2.00392
H         -9.31358        1.58817        3.42394
H        -11.16400        2.92035        2.44013
H        -11.71053        2.67656        0.03126
H        -10.39200        1.13009       -1.39143
H         -6.32132        1.22539        0.50271
