39
syn_S_O_tetClbenz_3-CF3.log	Energy: -2192473.6369604
C         -3.55797        1.09794       -0.03620
C         -4.59336        0.15763       -0.03015
C         -5.96112        0.56566       -0.04514
C         -6.90059       -0.41451       -0.03799
O         -8.25972       -0.23192       -0.04987
C         -6.59992       -1.80841       -0.01658
C         -7.89610       -2.45677       -0.01647
C         -8.16066       -3.91667        0.00227
F         -7.61521       -4.52940       -1.06303
F         -7.63194       -4.49880        1.09280
F         -9.47747       -4.17767       -0.00421
C         -8.81392       -1.47114       -0.03643
C         -5.29903       -2.22749       -0.00186
C         -4.26212       -1.24921       -0.00834
C         -2.91498       -1.62493        0.00609
C         -1.88632       -0.68305       -0.00001
C         -0.51860       -1.08656        0.01502
C          0.49069       -0.15955        0.00894
C          1.95110       -0.32824        0.02140
C          2.74401       -1.48338        0.04399
Cl         2.02076       -3.06024        0.06289
C          4.14142       -1.39267        0.05223
Cl         5.10716       -2.82694        0.08033
C          2.61046        0.91549        0.00771
C          3.99624        1.02001        0.01549
Cl         4.72095        2.59179       -0.00296
C          4.77154       -0.13845        0.03786
Cl         6.49367       -0.02339        0.04784
C          0.13403        1.23750       -0.01338
S          1.53639        2.29868       -0.01940
C         -1.15735        1.66775       -0.02812
C         -2.21791        0.71466       -0.02179
H         -3.80657        2.15638       -0.05263
H         -6.22893        1.61641       -0.06153
H         -9.89303       -1.50097       -0.04342
H         -5.04585       -3.28283        0.01449
H         -2.66400       -2.68294        0.02252
H         -0.30703       -2.14648        0.03123
H         -1.39619        2.72721       -0.04474
