58
syn_NPh_NPh_2-CF3_2-CF3.log	Energy: -1216263.0335292
C          0.48505       -0.94175        0.11056
C          1.68722       -0.23143        0.16936
C          2.94501       -0.89397        0.09818
C          4.08065       -0.13472        0.15958
N          5.41272       -0.52904        0.12127
C          5.84614       -1.87027       -0.08230
C          5.56455       -2.49876       -1.29429
C          5.95672       -3.81763       -1.49233
C          6.63764       -4.50221       -0.48839
C          6.91666       -3.86877        0.71919
C          6.51203       -2.55470        0.93101
C          4.05434        1.29680        0.29874
C          5.42864        1.73018        0.32915
C          6.19542        0.61740        0.21749
C          7.68826        0.56381        0.18815
F          8.19754       -0.02793        1.28597
F          8.14490       -0.11915       -0.87299
F          8.19747        1.80078        0.13155
C          2.85202        1.95122        0.37121
C          1.64046        1.20860        0.30681
C          0.39551        1.83950        0.37409
C         -0.80622        1.12910        0.31414
C         -2.06312        1.79178        0.38231
C         -3.22081        1.06013        0.32255
C         -4.62014        1.40297        0.36389
C         -5.31362        0.24241        0.25927
C         -6.79986        0.08956        0.26561
F         -7.38676        1.25833        0.55221
F         -7.27458       -0.31334       -0.92909
F         -7.20792       -0.81052        1.17345
C         -3.15491       -0.37084        0.19058
N         -4.45878       -0.84958        0.14491
C         -4.80440       -2.22997        0.08832
C         -4.47306       -3.05787        1.15980
C         -4.77859       -4.41274        1.10200
C         -5.42305       -4.93647       -0.01631
C         -5.75235       -4.10436       -1.08237
C         -5.43413       -2.75077       -1.03903
C         -1.97274       -1.05409        0.11605
C         -0.76033       -0.31112        0.17862
H          0.51994       -2.02417        0.00804
H          2.98612       -1.97429       -0.00090
H          5.04403       -1.94660       -2.07045
H          5.73873       -4.30765       -2.43618
H          6.94965       -5.52982       -0.64743
H          7.44287       -4.40094        1.50545
H          6.71072       -2.05473        1.87207
H          5.79317        2.74250        0.41637
H          2.80895        3.03178        0.47845
H          0.36061        2.92217        0.47666
H         -2.08980        2.87379        0.47979
H         -5.04925        2.38831        0.46536
H         -3.98225       -2.63093        2.02876
H         -4.52166       -5.05803        1.93630
H         -5.66749       -5.99346       -0.05668
H         -6.25034       -4.51018       -1.95739
H         -5.67270       -2.09499       -1.86847
H         -1.94406       -2.13418        0.01033
