45
syn_O_NPh_3-OMe_3-Cl.log	Energy: -1021128.4882245
C         -0.82527        1.11605        0.83062
C         -1.83669        0.17855        0.59335
C         -3.20925        0.51248        0.76684
C         -4.15135       -0.45010        0.52624
N         -5.54127       -0.39343        0.59930
C         -6.32595        0.71281        0.99926
C         -6.01083        1.41034        2.16653
C         -6.79110        2.49390        2.55361
C         -7.89767        2.87182        1.79752
C         -8.21705        2.16375        0.64234
C         -7.42889        1.09317        0.23411
C         -3.79493       -1.77003        0.07687
C         -5.04272       -2.46630       -0.11199
Cl        -5.20585       -4.10440       -0.63283
C         -6.05312       -1.62094        0.20189
C         -2.48137       -2.11327       -0.09585
C         -1.46769       -1.15073        0.16462
C         -0.11209       -1.45692        0.00647
C          0.89607       -0.52258        0.24616
C          2.27338       -0.85835        0.07905
C          3.21777        0.09572        0.32662
C          4.66412        0.14157        0.27327
O          5.40463       -0.92332       -0.08619
C          6.79906       -0.70176       -0.08230
C          5.02886        1.39112        0.63794
C          2.83503        1.40614        0.74482
O          3.93786        2.18499        0.93123
C          1.54244        1.78513        0.92125
C          0.52663        0.81068        0.67152
H         -1.10322        2.11775        1.15107
H         -3.48290        1.51653        1.07459
H         -5.16883        1.08994        2.77140
H         -6.54095        3.03448        3.46133
H         -8.50861        3.71367        2.10760
H         -9.07527        2.45420        0.04418
H         -7.65387        0.55953       -0.68443
H         -7.11940       -1.79518        0.20680
H         -2.20719       -3.10782       -0.43634
H          0.16519       -2.45839       -0.31540
H          2.55276       -1.85796       -0.23963
H          7.14828       -0.42693        0.92213
H          7.07030        0.09430       -0.78874
H          7.26551       -1.63810       -0.38883
H          5.98772        1.87370        0.74067
H          1.28090        2.78859        1.23991
