40
syn_C_S_diCl_p-CNbenz.log	Energy: -1463506.6457302
C         -3.46191        1.28504        0.56977
C         -2.14755        0.85523        0.44258
C         -1.04533        1.68526        0.82493
C          0.22408        1.22070        0.68160
S          1.70452        2.09081        1.09409
C          0.50078       -0.09143        0.15298
C          1.93670       -0.35219        0.09963
C          2.58894       -1.49724       -0.34572
C          3.98328       -1.54774       -0.31431
C          4.66192       -2.72758       -0.77245
N          5.20924       -3.68016       -1.14232
C          2.69462        0.73273        0.57312
C          4.08634        0.68773        0.60646
C          4.72847       -0.45696        0.16082
C         -0.53075       -0.90193       -0.21871
C         -1.88461       -0.46258       -0.08906
C         -2.95019       -1.27240       -0.46195
C         -4.28170       -0.84279       -0.33555
C         -5.36387       -1.66433       -0.71393
C         -6.67497       -1.23983       -0.58885
C         -7.80799       -2.05567       -0.96662
Cl        -7.51811       -3.64418       -1.60808
C         -9.08014       -1.58701       -0.82195
Cl       -10.46826       -2.53285       -1.26251
C         -6.93818        0.07808       -0.05725
C         -8.29671        0.51833        0.07240
C         -9.32788       -0.27905       -0.29402
C         -5.88138        0.88967        0.31610
C         -4.54261        0.46939        0.19387
H         -3.66296        2.27617        0.96953
H         -1.24553        2.67523        1.22410
H          2.02737       -2.34882       -0.71586
H          4.66278        1.53022        0.97355
H          5.81122       -0.51660        0.17677
H         -0.34261       -1.89456       -0.61953
H         -2.75185       -2.26395       -0.86196
H         -5.15023       -2.65056       -1.11120
H         -8.48719        1.50969        0.47251
H        -10.35656        0.04894       -0.19802
H         -6.08918        1.87965        0.71509
