40
syn_O_O_2-Cl_m-OMebenz.log	Energy: -985038.2137509
C         -3.40856        1.22701        0.13614
C         -2.10780        0.73021        0.06588
C         -0.97306        1.58444        0.24709
C          0.25668        1.02242        0.16331
O          1.44690        1.69080        0.31057
C          0.48108       -0.37004       -0.09499
C          1.92685       -0.51784       -0.09704
C          2.82299       -1.57228       -0.27996
C          4.18173       -1.32133       -0.20849
C          2.43559        0.75703        0.15233
C          3.78832        1.04881        0.23147
C          4.66436       -0.02306        0.04502
O          6.01283        0.08952        0.09045
C          6.56615        1.36258        0.34131
C         -0.58332       -1.20397       -0.27113
C         -1.91042       -0.67597       -0.19537
C         -3.02716       -1.49288       -0.36911
C         -4.33405       -0.99791       -0.29932
C         -5.46037       -1.85359       -0.48074
C         -6.72036       -1.32475       -0.40398
C         -8.06716       -1.84350       -0.52616
C         -8.87110       -0.78002       -0.34039
Cl       -10.57537       -0.66645       -0.34978
C         -6.87969        0.07071       -0.14404
O         -8.21551        0.38885       -0.10827
C         -5.85264        0.93854        0.03795
C         -4.52904        0.40837       -0.03806
H         -3.55778        2.28619        0.33289
H         -1.10380        2.64309        0.44411
H          2.46403       -2.57793       -0.47604
H          4.90834       -2.11438       -0.34514
H          4.11977        2.06007        0.42800
H          7.64792        1.22607        0.33569
H          6.25439        1.74958        1.31976
H          6.28726        2.08198       -0.43910
H         -0.44467       -2.26347       -0.46819
H         -2.87783       -2.55237       -0.56589
H         -5.30151       -2.91002       -0.67679
H         -8.37934       -2.85748       -0.72291
H         -6.02065        1.99209        0.23328
