50
syn_O_NPh_C_p-CF3benz.log	Energy: -968731.6151582
C         -3.47843        1.24427       -0.17187
C         -2.16526        0.77487       -0.11566
C         -1.05517        1.67127       -0.05635
C          0.20260        1.14735        0.00093
N          1.43675        1.80067        0.05165
C          1.62106        3.20525        0.07998
C          1.03116        3.96319        1.09167
C          1.20656        5.34257        1.11116
C          1.98451        5.96505        0.13818
C          2.57933        5.20397       -0.86457
C          2.39052        3.82650       -0.90364
C          0.44519       -0.27140       -0.01299
C          1.88898       -0.44041        0.03175
C          2.71183       -1.55783        0.05437
C          4.08968       -1.37434        0.12157
C          5.01011       -2.55894        0.08521
F          4.40045       -3.68605        0.49268
F          5.47542       -2.79551       -1.15728
F          6.08874       -2.37951        0.86989
C          2.45138        0.85123        0.07052
C          3.82940        1.04161        0.14892
C          4.63713       -0.08635        0.17094
C         -0.59976       -1.14600       -0.06982
C         -1.93722       -0.65022       -0.11893
C         -3.03202       -1.51290       -0.17536
C         -4.34869       -1.04488       -0.23056
C         -5.45338       -1.94476       -0.28809
C         -6.72475       -1.44101       -0.34189
C         -8.06008       -2.00049       -0.40749
C         -8.89892       -0.94888       -0.43732
C         -6.92076       -0.02532       -0.33939
O         -8.25689        0.25835       -0.39811
C         -5.91248        0.88384       -0.28619
C         -4.57738        0.38175       -0.22937
H         -3.65380        2.31777       -0.17132
H         -1.22839        2.74276       -0.06290
H          0.44418        3.46496        1.85689
H          0.74392        5.93066        1.89777
H          2.12628        7.04102        0.16111
H          3.18196        5.68448       -1.62914
H          2.82928        3.22684       -1.69524
H          2.29105       -2.55735        0.02846
H          4.25914        2.03589        0.20077
H          5.71362        0.03133        0.23687
H         -0.43209       -2.21989       -0.08323
H         -2.85593       -2.58657       -0.17746
H         -5.26830       -3.01528       -0.28853
H         -8.33658       -3.04422       -0.42875
H         -9.97588       -0.88582       -0.48617
H         -6.10473        1.95145       -0.28671
