49
syn_S_NPh_C_diOMe.log	Energy: -1007254.5646453
C          0.33284       -0.86488        0.32736
C          1.54431       -0.18175        0.20091
C          2.78992       -0.87796        0.19002
C          3.93926       -0.15481        0.06098
N          5.26669       -0.57750        0.03164
C          5.71017       -1.92341       -0.01719
C          5.16728       -2.79420       -0.96243
C          5.57927       -4.12199       -0.99613
C          6.54687       -4.57881       -0.10565
C          7.09606       -3.70246        0.82678
C          6.67339       -2.37923        0.88213
C          3.93769        1.28029       -0.04641
C          5.31763        1.68658       -0.13578
O          5.75776        2.97814       -0.24867
C          5.73458        3.68248        0.98284
C          6.07740        0.55090       -0.08485
O          7.38990        0.32022       -0.14452
C          8.22928        1.42133       -0.46863
C          2.75523        1.96895       -0.04428
C          1.52595        1.25807        0.07738
C          0.29524        1.91851        0.08406
C         -0.91680        1.23411        0.20958
C         -2.16600        1.91579        0.21657
C         -3.33986        1.21885        0.34255
C         -4.70072        1.71517        0.37257
C         -5.61492        0.73659        0.50955
C         -3.30262       -0.21436        0.46824
S         -4.92876       -0.87282        0.61533
C         -2.12776       -0.90868        0.46629
C         -0.89667       -0.20136        0.33626
H          0.34717       -1.94870        0.42202
H          2.80310       -1.95921        0.28521
H          4.42948       -2.42401       -1.66719
H          5.15074       -4.79714       -1.73056
H          6.87246       -5.61395       -0.13835
H          7.85008       -4.05271        1.52513
H          7.08586       -1.69424        1.61438
H          6.02776        4.71109        0.76227
H          6.44181        3.24431        1.70058
H          4.73272        3.67435        1.42875
H          7.91047        1.89231       -1.40189
H          9.22878        1.00035       -0.57885
H          8.22638        2.16695        0.33204
H          2.74131        3.05108       -0.14093
H          0.27997        3.00233       -0.01098
H         -2.17713        2.99875        0.12057
H         -4.95198        2.76650        0.29259
H         -6.69008        0.85035        0.55799
H         -2.10833       -1.99077        0.56179
