42
syn_S_O_tetFbenz_diCF3.log	Energy: -1499357.9949506
C         -3.28234       -0.10085       -1.98481
C         -4.40607       -0.05933       -1.15185
C         -5.72146        0.04990       -1.69017
C         -6.75056        0.08392       -0.80458
O         -8.07799        0.19039       -1.12477
C         -6.59845        0.01773        0.61008
C         -7.95286        0.08209        1.12904
C         -8.35277        0.07899        2.57062
F         -7.38487       -0.47471        3.32247
F         -8.55590        1.31920        3.03554
F         -9.47340       -0.62315        2.78024
C         -8.75551        0.19977        0.04869
C        -10.25187        0.28320       -0.09410
F        -10.57443        0.97756       -1.18760
F        -10.79352       -0.93534       -0.20341
F        -10.79535        0.88772        0.96506
C         -5.34484       -0.09066        1.15158
C         -4.22051       -0.12817        0.27918
C         -2.92005       -0.23472        0.78695
C         -1.80445       -0.27555       -0.04645
C         -0.48452       -0.38425        0.48434
C          0.59444       -0.42287       -0.35348
C          2.01240       -0.53020       -0.02862
C          2.62667       -0.62013        1.21615
F          1.90402       -0.61612        2.34012
C          4.00715       -0.71615        1.31807
F          4.58857       -0.80174        2.51116
C          2.81938       -0.53881       -1.17833
C          4.19759       -0.63456       -1.08307
F          4.95848       -0.64239       -2.17796
C          4.79390       -0.72345        0.16770
F          6.11451       -0.81573        0.27588
C          0.39506       -0.35331       -1.77851
S          1.91372       -0.41916       -2.67881
C         -0.84630       -0.24901       -2.32657
C         -1.99100       -0.20673       -1.47238
H         -3.42283       -0.04891       -3.06173
H         -5.88599        0.10395       -2.76057
H         -5.19409       -0.14663        2.22345
H         -2.77838       -0.28722        1.86381
H         -0.35223       -0.43556        1.55908
H         -0.98735       -0.19715       -3.40215
