59
syn_NPh_NPh_3-F_p-CNbenz.log	Energy: -1009882.3282863
C         -3.75823        0.27993        0.48747
C         -2.39854        0.07945        0.25851
C         -1.45178        1.14065        0.40603
C         -0.13617        0.87595        0.17045
N          0.96866        1.73202        0.23289
C          0.92505        3.10013        0.60230
C          0.41476        3.46598        1.84778
C          0.36585        4.80917        2.20441
C          0.84208        5.78459        1.33189
C          1.35832        5.41427        0.09299
C          1.39084        4.07459       -0.27991
C          0.32739       -0.42532       -0.23513
C          1.76674       -0.31011       -0.41253
C          2.74947       -1.21425       -0.78031
C          4.07719       -0.77633       -0.84309
C          5.11275       -1.69264       -1.22423
N          5.95017       -2.43344       -1.53289
C          2.11067        1.02628       -0.11439
C          3.43201        1.46816       -0.16300
C          4.40728        0.55439       -0.53161
C         -0.55554       -1.45312       -0.38266
C         -1.94516       -1.23441       -0.13667
C         -2.87731       -2.26023       -0.27468
C         -4.24404       -2.06131       -0.04410
C         -5.18359       -3.11444       -0.20154
C         -6.50992       -2.86937        0.03662
C         -7.70050       -3.66769       -0.05133
F         -7.71885       -4.95747       -0.39327
C         -8.76835       -2.91009        0.28062
C         -6.95634       -1.56529        0.45077
N         -8.33699       -1.62137        0.60281
C         -9.19631       -0.56012        0.96356
C         -8.89071        0.25354        2.05624
C         -9.74623        1.29326        2.40313
C        -10.91809        1.51278        1.68395
C        -11.22771        0.68878        0.60545
C        -10.36667       -0.33848        0.23598
C         -6.08272       -0.51912        0.59185
C         -4.70031       -0.74866        0.35043
H         -4.10182        1.26883        0.78313
H         -1.79311        2.12963        0.69523
H          0.06474        2.69511        2.52720
H         -0.03394        5.09256        3.17314
H          0.81019        6.83154        1.61681
H          1.72530        6.17106       -0.59338
H          1.76831        3.77663       -1.25330
H          2.50447       -2.24522       -1.01416
H          3.69323        2.49115        0.08381
H          5.44552        0.86505       -0.58022
H         -0.22180       -2.44089       -0.68992
H         -2.53428       -3.24850       -0.57347
H         -4.84676       -4.09750       -0.51685
H         -9.81162       -3.17724        0.35425
H         -7.99672        0.05496        2.63834
H         -9.50240        1.92349        3.25298
H        -11.58712        2.32038        1.96369
H        -12.13719        0.85447        0.03607
H        -10.58807       -0.96132       -0.62543
H         -6.41960        0.47407        0.86997
