52
syn_NPh_NPh_3-F_diF.log	Energy: -980127.0869271
C          0.63086        0.47211        0.46194
C         -0.66604        0.12635        0.07811
C         -1.79136        0.89694        0.49536
C         -3.03475        0.51302        0.08388
N         -4.28410        1.07086        0.36068
C         -4.54742        2.27252        1.06382
C         -3.85105        3.43479        0.73105
C         -4.09672        4.60916        1.43359
C         -5.05083        4.63471        2.44729
C         -5.75427        3.47567        2.76365
C         -5.49821        2.29020        2.08382
C         -3.24173       -0.65376       -0.73827
C         -4.66174       -0.75123       -0.93123
F         -5.29049       -1.69287       -1.63731
C         -5.23402        0.27900       -0.27206
F         -6.50855        0.60546       -0.17724
C         -2.17942       -1.41101       -1.14810
C         -0.86191       -1.03792       -0.75643
C          0.25423       -1.77519       -1.15557
C          1.55378       -1.42786       -0.77399
C          2.68038       -2.18234       -1.20137
C          3.93246       -1.80439       -0.79727
C          5.25442       -2.30383       -1.05580
F          5.52164       -3.37580       -1.80495
C          6.15560       -1.53100       -0.41194
C          4.11932       -0.66199        0.05939
N          5.48514       -0.52480        0.28716
C          6.12297        0.47474        1.05323
C          7.24751        1.12694        0.54448
C          7.89379        2.09204        1.30880
C          7.41253        2.42894        2.57089
C          6.28637        1.78168        3.07243
C          5.64736        0.79826        2.32571
C          3.06266        0.10392        0.47271
C          1.74995       -0.26750        0.06566
H          0.77655        1.34705        1.09200
H         -1.64410        1.76331        1.13224
H         -3.12920        3.41271       -0.07907
H         -3.55006        5.51095        1.17565
H         -5.24662        5.55532        2.98806
H         -6.49878        3.48824        3.55362
H         -6.02788        1.37935        2.34099
H         -2.32936       -2.29344       -1.76273
H          0.10859       -2.64992       -1.78579
H          2.54038       -3.04255       -1.84928
H          7.22964       -1.62212       -0.35350
H          7.60013        0.88651       -0.45395
H          8.76887        2.59374        0.90704
H          7.91315        3.19009        3.16093
H          5.91057        2.02924        4.06058
H          4.79369        0.26439        2.73017
H          3.20154        0.98611        1.08904
