39
syn_C_O_2-F_tetFbenz.log	Energy: -937441.8266390
C         -3.43722        1.12530        0.62991
C         -2.14248        0.66823        0.42791
C         -1.00566        1.44437        0.83641
C          0.22117        0.92675        0.60363
O          1.41700        1.52913        0.92746
C          0.44119       -0.34451       -0.02412
C          1.88581       -0.48858       -0.06640
C          2.75659       -1.46048       -0.53301
F          2.29606       -2.57700       -1.09801
C          4.12515       -1.26378       -0.40769
F          4.98416       -2.18120       -0.84726
C          2.39544        0.67375        0.52200
C          3.75574        0.89073        0.65734
F          4.24563        1.99367        1.21614
C          4.61502       -0.09667        0.18316
F          5.92868        0.06989        0.29273
C         -0.61350       -1.10601       -0.42400
C         -1.94360       -0.61947       -0.20853
C         -3.05057       -1.36213       -0.59953
C         -4.36324       -0.90304       -0.39669
C         -5.48877       -1.65410       -0.79187
C         -6.77834       -1.19250       -0.58703
C         -7.93018       -1.95037       -0.98613
C         -9.16645       -1.44828       -0.76018
F        -10.25511       -2.14157       -1.12590
C         -6.97539        0.09048        0.04729
C         -8.31885        0.55651        0.25333
C         -9.38745       -0.18485       -0.13596
C         -5.87622        0.83611        0.43916
C         -4.56008        0.37612        0.23566
H         -3.59100        2.09052        1.10686
H         -1.13746        2.40923        1.31353
H         -0.46289       -2.06941       -0.89999
H         -2.89855       -2.32762       -1.07667
H         -5.33573       -2.61931       -1.26893
H         -7.81174       -2.91685       -1.46444
H         -8.46616        1.52136        0.73040
H        -10.40743        0.15229        0.01213
H         -6.02852        1.80165        0.91641
