45
syn_S_O_diOMe_p-CNbenz.log	Energy: -1029020.8057836
C         -2.91087        1.27646        0.96935
C         -1.63932        0.73732        0.77047
C         -0.49882        1.24099        1.47332
C          0.69889        0.65985        1.22163
O          1.89563        1.01351        1.80348
C          0.87991       -0.41878        0.29992
C          2.30334       -0.71676        0.35081
C          3.13578       -1.63014       -0.27877
C          4.49847       -1.61284        0.03952
C          5.38570       -2.54602       -0.59581
N          6.10150       -3.29975       -1.10936
C          2.84209        0.18758        1.27734
C          4.18744        0.22158        1.60675
C          5.01457       -0.69584        0.97221
C         -0.19031       -0.91752       -0.38285
C         -1.48357       -0.35102       -0.16550
C         -2.60669       -0.83006       -0.84284
C         -3.87929       -0.28897       -0.64461
C         -5.02099       -0.78113       -1.33940
C         -6.25138       -0.22301       -1.12181
C         -7.51672       -0.57119       -1.73558
O         -7.60963       -1.55078       -2.68891
C         -7.30354       -1.08439       -3.99640
C         -8.55032        0.17531       -1.26964
O         -9.85608        0.17757       -1.55494
C        -10.41088       -0.99644       -2.14120
C         -6.39490        0.85087       -0.17961
S         -8.07342        1.36525       -0.05063
C         -5.32981        1.35207        0.50671
C         -4.03342        0.79561        0.29045
H         -3.03178        2.09545        1.67471
H         -0.59991        2.05786        2.17962
H          2.75136       -2.34328       -1.00012
H          4.57145        0.93381        2.32746
H          6.07593       -0.71084        1.19467
H         -0.08006       -1.73652       -1.08822
H         -2.48718       -1.65065       -1.54683
H         -4.91226       -1.60889       -2.03487
H         -8.04441       -0.34791       -4.33390
H         -7.32918       -1.95690       -4.65196
H         -6.30757       -0.62697       -4.03187
H        -11.49161       -0.86614       -2.08028
H        -10.10421       -1.88711       -1.58572
H        -10.10750       -1.10003       -3.18632
H         -5.44601        2.16358        1.21955
