36
syn_C_S_3-CF3_diF.log	Energy: -1068414.8738113
C         -2.62318        1.13836       -0.46603
C         -3.76803        0.61246        0.11990
C         -5.03666        1.26257       -0.00825
C         -6.13142        0.71294        0.58159
S         -7.77928        1.35076        0.54545
C         -6.04596       -0.51207        1.33539
C         -7.34026       -0.88039        1.85564
F         -7.51927       -1.97897        2.58869
C         -8.31114       -0.01379        1.52479
F         -9.58777       -0.09417        1.85937
C         -4.85201       -1.15727        1.47687
C         -3.67508       -0.61803        0.87516
C         -2.44097       -1.24682        0.99740
C         -1.28132       -0.71942        0.40716
C         -0.03021       -1.35936        0.53272
C          1.11484       -0.84039       -0.04893
C          2.41967       -1.46020        0.05189
C          2.58266       -2.74280        0.82349
F          1.82310       -3.73230        0.31444
F          3.85024       -3.18203        0.82231
F          2.21685       -2.60067        2.11233
C          3.50678       -0.90021       -0.54253
C          1.01748        0.38977       -0.80268
C          2.19918        0.93518       -1.40877
C          3.39938        0.31572       -1.28495
C         -0.20583        1.02432       -0.93096
C         -1.37584        0.50472       -0.34360
H         -2.69142        2.06332       -1.03402
H         -5.10181        2.18608       -0.57620
H         -4.78982       -2.08026        2.04523
H         -2.36977       -2.17169        1.56479
H          0.01090       -2.27916        1.10404
H          4.47426       -1.38039       -0.45482
H          2.10791        1.86034       -1.97144
H          4.28866        0.73309       -1.74548
H         -0.26773        1.94908       -1.50005
