59
syn_O_NPh_m-CF3benz_m-CF3benz.log	Energy: -1276561.9675130
C         -3.49334        0.94800        0.03589
C         -4.56115        0.04572        0.00581
C         -5.91440        0.49517        0.01425
C         -6.91153       -0.43716       -0.01946
N         -8.29379       -0.25885       -0.00639
C         -8.96276        0.99016        0.02700
C         -8.72565        1.93209       -0.97411
C         -9.37736        3.15989       -0.93337
C        -10.27975        3.44177        0.08911
C        -10.52138        2.49479        1.08077
C         -9.85649        1.27334        1.05971
C         -6.63886       -1.85033       -0.04690
C         -7.92996       -2.51825       -0.04915
C         -8.31248       -3.85500       -0.08280
C         -9.66451       -4.17165       -0.09292
C         -8.91040       -1.50760       -0.02256
C        -10.26704       -1.80848       -0.04516
C        -10.62388       -3.15304       -0.07759
C        -12.08160       -3.52407       -0.03139
F        -12.33682       -4.64027       -0.73477
F        -12.49003       -3.75664        1.23031
F        -12.86696       -2.55059       -0.52279
C         -5.35106       -2.30161       -0.05582
C         -4.27416       -1.36751       -0.03332
C         -2.94304       -1.78992       -0.04272
C         -1.87783       -0.88808       -0.01358
C         -0.52310       -1.33930       -0.02268
C          0.48650       -0.42232        0.00864
C          1.93968       -0.48516        0.01235
C          2.88366       -1.50780       -0.01117
C          4.23141       -1.17159        0.00871
C          2.36924        0.84622        0.05491
C          3.70289        1.20890        0.07595
C          4.63025        0.16950        0.05216
C          6.10086        0.48983        0.01461
F          6.81753       -0.38385        0.74213
F          6.58261        0.43905       -1.24043
F          6.36212        1.71891        0.48800
C          0.17873        0.97510        0.05007
O          1.32563        1.72937        0.07799
C         -1.08458        1.46694        0.05996
C         -2.16298        0.52700        0.02784
H         -3.70710        2.01385        0.06727
H         -6.12843        1.55852        0.05201
H         -8.03751        1.69278       -1.77885
H         -9.18929        3.89280       -1.71187
H        -10.79395        4.39744        0.11277
H        -11.22048        2.71075        1.88268
H        -10.01965        0.53794        1.84156
H         -7.56520       -4.64228       -0.10674
H         -9.98229       -5.20764       -0.12230
H        -11.02078       -1.02981       -0.04678
H         -5.12981       -3.36562       -0.07450
H         -2.72957       -2.85633       -0.07240
H         -0.31783       -2.40587       -0.05397
H          2.57634       -2.54824       -0.04084
H          4.98491       -1.95125       -0.00281
H          4.00612        2.24784        0.11401
H         -1.28053        2.53320        0.09184
