42
syn_O_O_diCF3_diCF3.log	Energy: -1374172.1534044
C         -0.32170        1.34580        0.31367
C         -1.44449        0.51578        0.33026
C         -2.76492        1.05733        0.31947
C         -3.79438        0.17356        0.33993
O         -5.12592        0.49552        0.34041
C         -3.64026       -1.24337        0.36981
C         -4.99694       -1.76040        0.37760
C         -5.39188       -3.20116        0.44272
F         -4.41770       -3.97453       -0.06916
F         -5.59690       -3.60516        1.70400
F         -6.50860       -3.45020       -0.25193
C         -5.80404       -0.67734        0.37813
C         -7.30380       -0.53609        0.36149
F         -7.66444        0.62943        0.90206
F         -7.77794       -0.57751       -0.88876
F         -7.87883       -1.51976        1.05798
C         -2.38527       -1.78877        0.37598
C         -1.25715       -0.91749        0.36051
C          0.04340       -1.42727        0.37179
C          1.16769       -0.59831        0.35640
C          2.48280       -1.14819        0.36756
C          3.55432       -0.29704        0.35605
C          4.99890       -0.44509        0.35689
C          5.75746       -1.73296        0.41460
F          4.99948       -2.74188       -0.05064
F          6.87168       -1.69425       -0.32638
F          6.11175       -2.04820        1.66788
C          5.49763        0.81024        0.35344
C          6.90810        1.33739        0.32389
F          7.73443        0.51610        0.97602
F          7.34855        1.46182       -0.93324
F          6.96475        2.53894        0.90218
C          3.33616        1.11158        0.32621
O          4.53872        1.76739        0.32048
C          2.11308        1.69904        0.31063
C          0.97767        0.83455        0.32608
H         -0.46357        2.42343        0.29107
H         -2.93036        2.12871        0.29767
H         -2.23425       -2.86208        0.39396
H          0.18532       -2.50511        0.39353
H          2.61420       -2.22396        0.38629
H          1.99588        2.77676        0.28858
