41
syn_S_NPh_2-Cl_diCl.log	Energy: -1728741.0038364
C          0.30582       -0.83949        0.18377
C          1.54733       -0.19349        0.18780
C          2.76293       -0.92900        0.11100
C          3.94065       -0.23559        0.11534
N          5.24836       -0.70819        0.05926
C          5.61682       -2.07758       -0.04841
C          5.24642       -2.79422       -1.18493
C          5.57565       -4.14173       -1.28384
C          6.28602       -4.76454       -0.26075
C          6.65856       -4.04098        0.86914
C          6.31547       -2.69824        0.98461
C          3.98996        1.19742        0.20758
C          5.38629        1.54688        0.20080
Cl         6.02287        3.14161        0.27843
C          6.09599        0.39132        0.11108
Cl         7.79242        0.20338        0.02581
C          2.83291        1.92534        0.28367
C          1.58208        1.24900        0.27251
C          0.37415        1.95177        0.34536
C         -0.86130        1.30459        0.33998
C         -2.08648        2.02835        0.41426
C         -3.28549        1.36729        0.40766
C         -4.62350        1.91525        0.47448
C         -5.56585        0.95606        0.44392
Cl        -7.27033        1.20119        0.50246
C         -3.30190       -0.07163        0.32500
S         -4.95164       -0.68945        0.33300
C         -2.15579       -0.80475        0.25220
C         -0.89482       -0.13484        0.25728
H          0.27825       -1.92510        0.12158
H          2.74111       -2.01265        0.05225
H          4.70672       -2.28980       -1.98029
H          5.28609       -4.70224       -2.16716
H          6.54877       -5.81454       -0.34366
H          7.20884       -4.52495        1.66983
H          6.58247       -2.12825        1.86857
H          2.86122        3.00874        0.35490
H          0.40153        3.03731        0.40863
H         -2.05636        3.11302        0.47629
H         -4.84337        2.97347        0.54122
H         -2.17812       -1.88899        0.19029
