46
syn_C_C_3-F_m-OMebenz.log	Energy: -761669.4916789
C         -2.10354       -1.69213       -0.62614
C         -3.05014       -0.75960       -0.21238
C         -4.44728       -1.00845       -0.27950
C         -5.37274       -0.08132        0.13138
C         -6.78964       -0.36919        0.04795
C         -7.71394        0.52314        0.44395
C         -4.94180        1.20087        0.65497
C         -5.96768        2.16361        1.08371
C         -5.65917        3.42625        1.60347
C         -6.63853        4.32196        2.00282
C         -7.33661        1.81919        0.97516
C         -8.32382        2.72154        1.37746
C         -7.98923        3.96836        1.88965
O         -9.02584        4.76561        2.24926
C         -8.73237        6.04088        2.77409
C         -3.59457        1.45577        0.72561
C         -2.61442        0.51243        0.30642
C         -1.25123        0.78299        0.38319
C         -0.29066       -0.15177       -0.03189
C          1.09288        0.11656        0.04345
C          2.02305       -0.81737       -0.37046
C          3.43539       -0.57588       -0.30697
F          3.82456        0.61457        0.17936
C          4.35831       -1.47993       -0.70841
C          1.59645       -2.09498       -0.89192
C          2.59497       -3.03972       -1.31229
C          3.91723       -2.74166       -1.22299
C          0.24138       -2.36309       -0.96788
C         -0.72810       -1.42529       -0.55123
H         -2.43599       -2.65118       -1.01716
H         -4.78735       -1.96527       -0.66970
H         -7.08833       -1.33633       -0.34780
H         -8.77302        0.29024        0.37403
H         -4.62462        3.73556        1.70649
H         -6.34171        5.28636        2.39826
H         -9.37409        2.45848        1.29466
H         -9.69515        6.50430        2.99235
H         -8.18982        6.66073        2.04873
H         -8.14723        5.97137        3.70011
H         -3.22874        2.40257        1.11050
H         -0.91850        1.74198        0.77421
H          1.42766        1.07257        0.43316
H          5.41350       -1.24195       -0.63706
H          2.26743       -3.99858       -1.70349
H          4.66381       -3.46157       -1.54307
H         -0.09104       -3.32203       -1.35889
