49
syn_C_S_diOMe_diOMe.log	Energy: -1019835.9893758
C         -2.64780        0.41298       -1.62336
C         -3.71803        0.53688       -0.74548
C         -4.97650        1.07055       -1.16887
C         -5.99652        1.17317       -0.27419
S         -7.61617        1.78287       -0.57939
C         -5.84278        0.75881        1.09452
C         -7.05293        0.97468        1.86904
O         -7.00742        0.61942        3.17105
C         -8.13708        0.87333        3.98568
C         -8.05715        1.50732        1.13230
O         -9.32514        1.77739        1.51982
C         -9.64189        3.16256        1.59627
C         -4.65585        0.24650        1.53074
C         -3.55565        0.11717        0.62923
C         -2.33242       -0.40078        1.03980
C         -1.24743       -0.52883        0.15712
C         -0.00525       -1.05305        0.57170
C          1.05512       -1.17228       -0.30893
C          2.32305       -1.71457        0.10870
O          2.44192       -2.10909        1.41628
C          2.52896       -3.51938        1.58379
C          3.36114       -1.81285       -0.77527
O          4.58153       -2.33185       -0.43447
C          5.29114       -1.60461        0.56076
C          0.89647       -0.75657       -1.68232
C          2.00940       -0.90397       -2.57721
C          3.19022       -1.40761       -2.13786
C         -0.31904       -0.23949       -2.09604
C         -1.41026       -0.10973       -1.21234
H         -2.76869        0.72839       -2.65745
H         -5.09575        1.38470       -2.20188
H         -7.86906        0.51051        4.97897
H         -9.02130        0.34388        3.62069
H         -8.35459        1.94680        4.03762
H        -10.67472        3.22142        1.94220
H         -9.55558        3.64416        0.61525
H         -8.97910        3.67256        2.30617
H         -4.54319       -0.06382        2.56507
H         -2.20974       -0.71581        2.07360
H          0.12746       -1.36230        1.60354
H          3.43172       -3.91808        1.10900
H          1.64498       -4.01183        1.16097
H          2.56648       -3.69859        2.65988
H          6.26301       -2.09199        0.65667
H          4.76760       -1.62278        1.52128
H          5.43475       -0.56344        0.24716
H          1.88986       -0.59855       -3.61284
H          4.04329       -1.52180       -2.79894
H         -0.43956        0.07578       -3.13020
