50
syn_C_S_diOMe_m-CF3benz.log	Energy: -1183988.4498158
C         -3.22485        0.76112        1.43029
C         -1.90194        0.48919        1.10774
C         -0.82026        0.91875        1.94201
C          0.45915        0.62857        1.58536
S          1.91692        1.07060        2.47835
C          0.76617       -0.10510        0.38263
C          2.20511       -0.28898        0.22107
C          2.88820       -0.94464       -0.80480
C          4.27149       -1.01537       -0.77723
C          2.93634        0.29049        1.26926
C          4.32470        0.22669        1.30716
C          4.98314       -0.43121        0.27562
C          6.48678       -0.48447        0.25077
F          6.93062       -1.70356       -0.10180
F          6.99382        0.38567       -0.64111
F          7.02583       -0.18847        1.44405
C         -0.24592       -0.52548       -0.42942
C         -1.60848       -0.24648       -0.10119
C         -2.65425       -0.66461       -0.91472
C         -3.99505       -0.39183       -0.59491
C         -5.05887       -0.81474       -1.41781
C         -6.37465       -0.53948       -1.08926
C         -7.46389       -0.96341       -1.93142
O         -7.14728       -1.65114       -3.07373
C         -7.38880       -0.91964       -4.27061
C         -8.75747       -0.69227       -1.58090
O         -9.82960       -1.06135       -2.34666
C         -9.99778       -2.46352       -2.52043
C         -6.67309        0.19617        0.11616
C         -8.04594        0.47910        0.42539
C         -9.04202        0.04850       -0.38920
C         -5.63312        0.61297        0.92978
C         -4.28735        0.34072        0.61122
H         -3.44832        1.31410        2.33987
H         -1.04411        1.47172        2.84970
H          2.33840       -1.40160       -1.62194
H          4.80684       -1.52834       -1.56885
H          4.88457        0.67348        2.12081
H         -0.03359       -1.07974       -1.34018
H         -2.43291       -1.21887       -1.82410
H         -4.84646       -1.37447       -2.32306
H         -8.45411       -0.69467       -4.38757
H         -7.05227       -1.55559       -5.09134
H         -6.81510        0.01494       -4.27176
H        -10.93049       -2.58966       -3.07274
H        -10.07897       -2.96392       -1.54796
H         -9.16782       -2.90134       -3.08291
H         -8.27299        1.03921        1.32795
H        -10.08564        0.24836       -0.16873
H         -5.85706        1.16587        1.83933
