37
syn_S_O_2-CN_diCF3.log	Energy: -1211828.9269163
C          1.09107       -1.21249       -0.08221
C          2.22786       -0.40109       -0.05889
C          3.53884       -0.96346       -0.09678
C          4.58317       -0.09732       -0.06743
O          5.90893       -0.44096       -0.08912
C          4.45294        1.32084       -0.00326
C          5.81798        1.81532        0.00132
C          6.23821        3.24749        0.09416
F          5.27081        4.04882       -0.38676
F          6.46659        3.61868        1.36141
F          7.34966        3.49359       -0.60979
C          6.60690        0.71943       -0.03216
C          8.10390        0.55362       -0.06900
F          8.45056       -0.62839        0.44405
F          8.56407        0.61225       -1.32363
F          8.70313        1.51336        0.64026
C          3.20719        1.88624        0.02970
C          2.06468        1.03442        0.00661
C          0.77296        1.56567        0.04433
C         -0.36242        0.75286        0.02173
C         -1.67270        1.30363        0.06188
C         -2.76930        0.48034        0.03883
C         -4.16549        0.83865        0.07209
C         -4.98342       -0.23971        0.03454
C         -6.40574       -0.20661        0.05386
N         -7.56513       -0.18353        0.06940
C         -2.59108       -0.94691       -0.02662
S         -4.13546       -1.78453       -0.04478
C         -1.35177       -1.51628       -0.06687
C         -0.19834       -0.67849       -0.04355
H          1.21484       -2.29154       -0.13136
H          3.68629       -2.03658       -0.14509
H          3.07376        2.96100        0.07447
H          0.64901        2.64490        0.09309
H         -1.79452        2.38231        0.11120
H         -4.52835        1.85814        0.12188
H         -1.22296       -2.59342       -0.11609
