39
syn_C_O_2-F_tetClbenz.log	Energy: -1841997.4719536
C         -3.39792        1.12858        0.59685
C         -2.10719        0.65598        0.40580
C         -0.96187        1.43325        0.78270
C          0.25802        0.89588        0.56093
O          1.45547        1.50407        0.86157
C          0.47458       -0.39611       -0.02456
C          1.92382       -0.54232       -0.06335
C          2.81166       -1.52144       -0.49351
Cl         2.19772       -2.98943       -1.17504
C          4.18925       -1.30505       -0.36862
Cl         5.30252       -2.51712       -0.90108
C          2.43017        0.63957        0.48570
C          3.78528        0.88716        0.62456
Cl         4.31299        2.37688        1.31482
C          4.67112       -0.10538        0.18828
Cl         6.37052        0.15753        0.34102
C         -0.59398       -1.15792       -0.39310
C         -1.91824       -0.65230       -0.18789
C         -3.03100       -1.40102       -0.55118
C         -4.33973       -0.92690       -0.35981
C         -5.47100       -1.68354       -0.72710
C         -6.75690       -1.20717       -0.53420
C         -7.91452       -1.97036       -0.90525
C         -9.14687       -1.45309       -0.69273
F        -10.24085       -2.15068       -1.03266
C         -6.94383        0.09728        0.05811
C         -8.28372        0.57851        0.25224
C         -9.35793       -0.16841       -0.10972
C         -5.83909        0.84850        0.42236
C         -4.52640        0.37381        0.23064
H         -3.54379        2.10988        1.04220
H         -1.07929        2.41473        1.22848
H         -0.46537       -2.13807       -0.83808
H         -2.88647       -2.38261       -0.99662
H         -5.32533       -2.66483       -1.17251
H         -7.80358       -2.95272       -1.35191
H         -8.42362        1.55937        0.69775
H        -10.37529        0.18001        0.02988
H         -5.98411        1.83008        0.86797
