34
syn_C_O_3-F_2-CN.log	Energy: -649835.1087821
C          0.93713       -1.47741        0.00383
C         -0.24302       -0.72029        0.00188
C         -1.52261       -1.34699        0.00442
C         -2.61450       -0.53586        0.00229
O         -3.91908       -0.94722        0.00417
C         -2.54956        0.88864       -0.00230
C         -3.92374        1.32798       -0.00315
C         -4.66882        0.19910        0.00085
C         -6.08281        0.04102        0.00198
N         -7.23747       -0.05914        0.00280
C         -1.32691        1.51250       -0.00482
C         -0.14783        0.72104       -0.00278
C          1.12620        1.31332       -0.00521
C          2.28674        0.55325       -0.00324
C          3.59275        1.14539       -0.00567
C          4.71261        0.37949       -0.00364
C          8.09301       -0.40607       -0.00340
F          8.36506        0.87092       -0.00805
C          8.55162       -1.63218        0.00072
C          4.63913       -1.05939        0.00101
C          5.84641       -1.88573        0.00323
C          7.09418       -1.41177        0.00080
C          3.40089       -1.64729        0.00339
C          2.19487       -0.88108        0.00141
H          0.86440       -2.56259        0.00735
H         -1.61367       -2.42768        0.00793
H         -4.30236        2.33942       -0.00625
H         -1.24572        2.59565       -0.00834
H          1.20048        2.39879       -0.00873
H          3.67012        2.22968       -0.00918
H          9.35883       -2.34665        0.00275
H          5.71115       -2.96347        0.00710
H          5.68528        0.86139       -0.00556
H          3.31861       -2.73197        0.00692
