34
syn_O_O_3-CF3_3-CN.log	Energy: -797720.5967730
C          0.12948        1.62320       -0.00619
C         -0.94780        0.73946        0.08626
C         -2.29381        1.19707       -0.05775
C         -3.27680        0.26820        0.04713
O         -4.62781        0.50174       -0.05985
C         -3.04380       -1.11660        0.28917
C         -4.37349       -1.70774        0.32042
C         -4.70195       -3.07313        0.53107
N         -4.94410       -4.19367        0.70536
C         -5.24214       -0.68980        0.10727
C         -1.76915       -1.58401        0.43115
C         -0.68557       -0.66066        0.33225
C          0.63828       -1.08434        0.46946
C          1.71655       -0.20129        0.37719
C          3.05959       -0.66042        0.52166
C          4.07860        0.24405        0.42305
C          5.52456        0.18676        0.50682
C          6.35511       -1.01936        0.74556
F          6.04025       -1.61094        1.91113
F          6.17220       -1.94171       -0.21544
F          7.66278       -0.71695        0.77920
C          5.96636        1.44548        0.32095
C          3.79190        1.62062        0.18040
O          4.96137        2.33603        0.12198
C          2.53923        2.12107        0.03360
C          1.45275        1.19851        0.13136
H         -0.06837        2.67630       -0.19112
H         -2.51020        2.24351       -0.24263
H         -6.32048       -0.67610        0.05061
H         -1.56972       -2.63533        0.61600
H          0.83621       -2.13747        0.65444
H          3.25349       -1.71223        0.70656
H          6.96476        1.85583        0.30441
H          2.36037        3.17482       -0.15004
