42
syn_S_O_diCF3_tetFbenz.log	Energy: -1499355.0300751
C         -3.18716        1.27733        0.87649
C         -1.90709        0.79681        0.60975
C         -0.75536        1.35808        1.25052
C          0.45245        0.83364        0.93582
O          1.65860        1.24654        1.45178
C          0.63264       -0.24103        0.00558
C          2.06600       -0.47017       -0.01911
C          2.90356       -1.34666       -0.69131
F          2.41069       -2.24273       -1.54643
C          4.27172       -1.28497       -0.46611
F          5.09967       -2.11424       -1.09733
C          2.60866        0.46024        0.87297
C          3.96960        0.53987        1.11290
F          4.48918        1.42300        1.95995
C          4.79491       -0.34812        0.42893
F          6.10773       -0.30858        0.62752
C         -0.44278       -0.79601       -0.62019
C         -1.74835       -0.28836       -0.33259
C         -2.87853       -0.82300       -0.94714
C         -4.16505       -0.34045       -0.67933
C         -5.30798       -0.89480       -1.31296
C         -6.55822       -0.40202       -1.03157
C         -7.84897       -0.81467       -1.55767
C         -7.93047       -1.93412       -2.55615
F         -7.41583       -3.06297       -2.03654
F         -9.17206       -2.20503       -2.95915
F         -7.20325       -1.64060       -3.64905
C         -8.87516       -0.09524       -1.04764
C        -10.35439       -0.21126       -1.33243
F        -10.63242        0.01570       -2.61936
F        -10.83024       -1.41620       -1.00571
F        -11.03129        0.69758       -0.60904
C         -6.70041        0.67425       -0.09533
S         -8.38068        1.13016        0.09954
C         -5.62651        1.23563        0.53580
C         -4.32256        0.73998        0.25883
H         -3.30853        2.09330        1.58476
H         -0.85683        2.17217        1.95959
H         -0.32396       -1.61026       -1.32734
H         -2.75903       -1.63907       -1.65580
H         -5.17518       -1.70821       -2.01805
H         -5.74786        2.05070        1.24310
