57
syn_O_NPh_benz_p-OMebenz.log	Energy: -925518.3170099
C         -3.49948       -2.01877        0.55722
C         -4.47325       -1.06603        0.24211
C         -5.86484       -1.36195        0.34363
C         -6.76748       -0.38662        0.02635
N         -8.15922       -0.42815        0.02925
C         -8.94880       -1.53859        0.40552
C         -8.77251       -2.12855        1.65820
C         -9.54416       -3.22712        2.02064
C        -10.50788       -3.72746        1.14887
C        -10.68976       -3.13026       -0.09570
C         -9.90620       -2.04552       -0.47463
C         -6.35400        0.91780       -0.42368
C         -7.57122        1.66796       -0.69345
C         -7.80020        2.96391       -1.12901
C         -9.11624        3.40645       -1.27424
O         -9.25913        4.68970       -1.71073
C        -10.56356        5.19572       -1.86035
C         -8.65026        0.81025       -0.40597
C         -9.95943        1.24676       -0.53504
C        -10.18453        2.55200       -0.97462
C         -5.02842        1.22122       -0.52801
C         -4.04757        0.24089       -0.19416
C         -2.68138        0.51490       -0.28478
C         -1.70978       -0.43645        0.03209
C         -0.31649       -0.13762       -0.06596
C          0.59880       -1.09749        0.25313
C          2.05168       -1.17422        0.27994
C          3.09114       -0.29482       -0.01042
C          4.40103       -0.74045        0.13845
C          2.34871       -2.47243        0.71030
C          3.64269       -2.93776        0.86569
C          4.66980       -2.04377        0.57049
C          0.15388       -2.38956        0.68077
O          1.21941       -3.21000        0.95353
C         -1.15253       -2.73514        0.79428
C         -2.13361       -1.74633        0.46627
H         -3.81750       -3.00609        0.88463
H         -6.18082       -2.34999        0.66295
H         -8.03573       -1.71707        2.34092
H         -9.40047       -3.68451        2.99484
H        -11.11454       -4.57995        1.43816
H        -11.43490       -3.51899       -0.78319
H        -10.02295       -1.59051       -1.45337
H         -6.98637        3.64493       -1.35589
H        -10.45046        6.22324       -2.20879
H        -11.11010        5.19689       -0.90771
H        -11.13745        4.62532       -2.60308
H        -10.79679        0.59980       -0.29617
H        -11.20837        2.89229       -1.07660
H         -4.70411        2.20136       -0.86833
H         -2.36371        1.50222       -0.61387
H         -0.00725        0.85131       -0.39362
H          2.88354        0.71687       -0.34577
H          5.22542       -0.07011       -0.08291
H          3.83819       -3.94998        1.20115
H          5.70020       -2.36821        0.67889
H         -1.45319       -3.72463        1.12167
