48
syn_S_NPh_diCl_p-CNbenz.log	Energy: -1594604.0707010
C         -3.46588        1.35407       -0.22495
C         -2.16612        0.84786       -0.16568
C         -1.03403        1.71364       -0.08404
C          0.20831        1.15447       -0.02601
N          1.45764        1.77442        0.04496
C          1.67624        3.17552        0.09109
C          1.12643        3.92865        1.12799
C          1.33470        5.30317        1.16512
C          2.10478        5.92246        0.18385
C          2.65902        5.16491       -0.84454
C          2.43763        3.79283       -0.90062
C          0.41348       -0.26978       -0.05837
C          1.85229       -0.47631       -0.00180
C          2.64558       -1.61232        0.00863
C          4.03411       -1.46088        0.08577
C          4.87786       -2.62093        0.09541
N          5.55964       -3.55907        0.10264
C          2.44660        0.80218        0.06006
C          3.82862        0.96234        0.14784
C          4.61232       -0.18084        0.15802
C         -0.65283       -1.11603       -0.13629
C         -1.97595       -0.58318       -0.18919
C         -3.09135       -1.41744       -0.26791
C         -4.39211       -0.90923       -0.32628
C         -5.52396       -1.76723       -0.40711
C         -6.78387       -1.23626       -0.46371
C         -8.06052       -1.91821       -0.54915
Cl        -8.18444       -3.63681       -0.59542
C         -9.11254       -1.07401       -0.58767
Cl       -10.76931       -1.49790       -0.68864
C         -6.96415        0.18843       -0.44136
S         -8.66783        0.62571       -0.52458
C         -5.90609        1.04542       -0.36467
C         -4.58270        0.51812       -0.30456
H         -3.61343        2.43147       -0.20927
H         -1.17764        2.78938       -0.07418
H          0.54503        3.43125        1.89807
H          0.90419        5.88935        1.97099
H          2.27228        6.99428        0.22036
H          3.25530        5.64407       -1.61474
H          2.84458        3.19561       -1.71084
H          2.20763       -2.60400       -0.03902
H          4.27862        1.94679        0.21112
H          5.69147       -0.09345        0.22503
H         -0.51461       -2.19360       -0.16353
H         -2.94508       -2.49505       -0.28547
H         -5.37979       -2.84367       -0.42380
H         -6.04965        2.12191       -0.34873
