44
syn_S_S_p-CNbenz_m-CNbenz.log	Energy: -1242265.8150572
C         -3.54065        1.23562       -0.00193
C         -4.59439        0.31947       -0.00206
C         -5.95635        0.74547       -0.00258
C         -6.95043       -0.18647       -0.00267
S         -8.68342        0.14269       -0.00328
C         -6.66824       -1.59611       -0.00226
C         -7.89321       -2.38787       -0.00246
C         -8.02983       -3.77725       -0.00216
C         -9.29150       -4.34813       -0.00239
C         -9.04471       -1.58196       -0.00300
C        -10.31711       -2.13695       -0.00323
C        -10.43149       -3.52898       -0.00293
C        -11.73658       -4.12951       -0.00315
N        -12.78899       -4.61541       -0.00332
C         -5.37052       -2.02604       -0.00178
C         -4.29742       -1.08919       -0.00165
C         -2.96367       -1.50305       -0.00112
C         -1.91030       -0.58679       -0.00097
C         -0.55010       -1.01170       -0.00042
C          0.46331       -0.09523       -0.00029
C          1.90531       -0.32241        0.00026
C          2.58816       -1.53445        0.00077
C          3.98345       -1.53489        0.00125
C          4.69261       -2.78373        0.00178
N          5.26321       -3.79284        0.00224
C          2.63452        0.87942        0.00023
C          4.02765        0.88451        0.00071
C          4.69991       -0.32728        0.00122
C          0.15250        1.30798       -0.00073
S          1.60766        2.30709       -0.00046
C         -1.13234        1.76094       -0.00127
C         -2.20722        0.82185       -0.00140
H         -3.76461        2.29974       -0.00225
H         -6.17747        1.80876       -0.00289
H         -7.14994       -4.41300       -0.00175
H         -9.40887       -5.42600       -0.00217
H        -11.20664       -1.51647       -0.00364
H         -5.13739       -3.08770       -0.00147
H         -2.73961       -2.56738       -0.00080
H         -0.33580       -2.07735       -0.00009
H          2.04933       -2.47642        0.00080
H          4.58178        1.81713        0.00067
H          5.78418       -0.34998        0.00159
H         -1.35832        2.82321       -0.00160
