36
syn_C_C_3-Cl_diF.log	Energy: -944081.9894393
C         -2.27677        0.63218        1.63077
C         -3.54209        0.31159        1.13052
C         -4.73034        0.74465        1.76437
C         -5.97848        0.42607        1.26767
C         -7.19219        0.86169        1.90516
C         -8.40579        0.53362        1.39491
C         -6.07037       -0.37347        0.06459
C         -7.37927       -0.68871       -0.42766
F         -7.47778       -1.42743       -1.53931
C         -8.49360       -0.25461        0.20905
F         -9.70688       -0.55853       -0.26488
C         -4.92711       -0.80839       -0.57294
C         -3.64463       -0.48639       -0.07059
C         -2.47486       -0.91809       -0.70268
C         -1.21002       -0.59733       -0.20219
C         -0.02470       -1.03331       -0.84045
C          1.22317       -0.71574       -0.34493
C          2.46118       -1.13611       -0.95911
Cl         2.40085       -2.10432       -2.41553
C          3.67102       -0.80481       -0.44356
C          1.32884        0.08485        0.86030
C          2.63037        0.41370        1.37355
C          3.75408       -0.01365        0.74716
C          0.17812        0.51523        1.49066
C         -1.10846        0.19964        0.99750
H         -2.19981        1.23259        2.53437
H         -4.65323        1.34505        2.66786
H         -7.11959        1.46130        2.80731
H         -9.33185        0.85233        1.86075
H         -5.00784       -1.40725       -1.47429
H         -2.55102       -1.51831       -1.60619
H         -0.11244       -1.63165       -1.74127
H          4.57863       -1.13939       -0.93353
H          2.69108        1.01395        2.27691
H          4.73476        0.23716        1.13838
H          0.26030        1.11531        2.39398
