58
syn_S_NPh_m-OMebenz_m-CNbenz.log	Energy: -1186056.9389910
C         -3.60682        1.18114        0.03256
C         -4.63317        0.23195        0.00519
C         -6.00572        0.61991        0.01313
C         -6.95925       -0.35642       -0.01810
N         -8.34977       -0.24091       -0.00437
C         -9.07512        0.97672        0.02467
C         -8.88580        1.92209       -0.98324
C         -9.59381        3.11849       -0.94690
C        -10.50386        3.36455        0.07811
C        -10.69667        2.41415        1.07710
C         -9.97570        1.22484        1.06036
C         -6.62250       -1.75467       -0.04392
C         -7.88067       -2.48115       -0.04679
C         -8.19799       -3.83530       -0.07622
C         -9.53158       -4.21952       -0.08487
C         -8.90792       -1.51460       -0.02164
C        -10.24810       -1.87722       -0.04174
C        -10.54246       -3.24399       -0.07071
C        -11.91820       -3.65852       -0.08658
N        -13.02815       -3.99322       -0.09741
C         -5.31486       -2.14785       -0.05158
C         -4.28151       -1.16691       -0.03053
C         -2.93185       -1.53048       -0.03860
C         -1.91070       -0.58047       -0.01182
C         -0.53494       -0.95583       -0.01913
C          0.44759       -0.00668        0.00876
C          1.89515       -0.17932        0.00779
C          2.64008       -1.36342       -0.02180
C          4.01998       -1.31756       -0.01672
C          2.58118        1.03947        0.04231
C          3.97313        1.11145        0.04806
C          4.69099       -0.08299        0.01814
O          6.04330       -0.15928        0.01993
C          6.77843        1.04396        0.05455
C          0.08248        1.38522        0.04545
S          1.50105        2.43497        0.07715
C         -1.21749        1.79128        0.05366
C         -2.26027        0.81545        0.02523
H         -3.86683        2.23692        0.06105
H         -6.26795        1.67255        0.04861
H         -8.19026        1.70994       -1.78925
H         -9.44346        3.85443       -1.73068
H        -11.06204        4.29529        0.09797
H        -11.40148        2.60262        1.88090
H        -10.10058        0.48797        1.84790
H         -7.41313       -4.58505       -0.09493
H         -9.80450       -5.26847       -0.10543
H        -11.04189       -1.13901       -0.03988
H         -5.04597       -3.20086       -0.06875
H         -2.67095       -2.58636       -0.06551
H         -0.28308       -2.01308       -0.04696
H          2.13460       -2.32450       -0.04882
H          4.61508       -2.22379       -0.03917
H          4.46927        2.07414        0.07529
H          7.82947        0.75381        0.04998
H          6.56526        1.61862        0.96494
H          6.57076        1.66676       -0.82494
H         -1.48133        2.84467        0.08182
