42
syn_C_S_tetFbenz_2-CF3.log	Energy: -1289303.2282552
C          1.10942       -1.89990        1.01781
C          0.05462       -1.14587        0.50099
C         -1.30427       -1.47057        0.78798
C         -2.29985       -0.70259        0.25930
S         -4.03040       -0.92032        0.48166
C         -2.02089        0.43011       -0.58385
C         -3.23918        1.07725       -1.01615
C         -4.34454        0.47812       -0.53560
C         -5.75483        0.90551       -0.79499
F         -6.46604       -0.07139       -1.37925
F         -6.38933        1.22681        0.34331
F         -5.79107        1.97621       -1.59987
C         -0.72259        0.75953       -0.87219
C          0.34954       -0.01198       -0.34265
C          1.68213        0.30186       -0.61963
C          2.73614       -0.45427       -0.10068
C          4.08986       -0.13122       -0.38455
C          5.14126       -0.86640        0.11893
C          6.55712       -0.56483       -0.15109
C          7.00376        0.50089       -0.94834
F          6.15799        1.35272       -1.54419
C          8.34717        0.74709       -1.17520
F          8.71531        1.77121       -1.93921
C          7.55771       -1.39268        0.42196
C          8.90974       -1.12811        0.18127
F          9.84778       -1.91189        0.72404
C          9.31679       -0.07229       -0.60747
F         10.60491        0.16717       -0.82761
C          4.83561       -2.00348        0.96411
C          5.90999       -2.79974        1.51138
C          7.19856       -2.51604        1.25876
C          3.52958       -2.32865        1.24812
C          2.44084       -1.58135        0.73728
H          0.89053       -2.75473        1.65344
H         -1.52163       -2.32418        1.42325
H         -3.26279        1.94980       -1.65702
H         -0.49852        1.61248       -1.50722
H          1.90440        1.15617       -1.25492
H          4.26840        0.72435       -1.01883
H          5.64712       -3.64516        2.14083
H          7.99667       -3.11939        1.67411
H          3.32309       -3.18593        1.88463
