40
syn_C_C_3-OMe_diCl.log	Energy: -1179811.0039444
C         -2.70495        1.01152       -0.57541
C         -3.85044        0.59841        0.11075
C         -5.09133        1.26244       -0.02067
C         -6.21743        0.84779        0.66100
C         -7.47096        1.53289        0.51709
C         -8.57320        1.12428        1.18677
C         -6.14183       -0.30042        1.54121
C         -7.34854       -0.69890        2.23605
Cl        -7.28494       -2.07309        3.29859
C         -8.51097       -0.01081        2.06112
Cl        -9.98026       -0.45521        2.87506
C         -4.93789       -0.96072        1.68099
C         -3.77648       -0.54526        0.98750
C         -2.55725       -1.21460        1.12965
C         -1.41165       -0.80267        0.44424
C         -0.17466       -1.47766        0.58509
C          0.94977       -1.06375       -0.09505
C          2.21948       -1.75124        0.04510
O          2.18243       -2.80888        0.88788
C          3.37376       -3.53690        1.08462
C          3.32083       -1.32614       -0.63619
C          0.88331        0.08222       -0.97529
C          2.07268        0.49193       -1.67234
C          3.23288       -0.18809       -1.50328
C         -0.31749        0.74778       -1.12026
C         -1.48608        0.34237       -0.43308
H         -2.76354        1.87396       -1.23550
H         -5.15761        2.12544       -0.67912
H         -7.52005        2.39274       -0.14449
H         -9.52164        1.63839        1.08125
H         -4.86508       -1.82203        2.33605
H         -2.49892       -2.07688        1.78972
H         -0.11460       -2.33825        1.24289
H          4.16090       -2.90286        1.51164
H          3.73139       -3.97516        0.14443
H          3.12813       -4.33394        1.78692
H          4.27366       -1.83235       -0.53842
H          2.01906        1.35273       -2.33226
H          4.12902        0.12410       -2.03122
H         -0.37211        1.60990       -1.78106
