64
syn_C_NPh_p-OMebenz_m-OMebenz.log	Energy: -998744.4263696
C         -3.34643        1.42382        0.03459
C         -2.03820        0.98687        0.23900
C         -0.91674        1.76925       -0.17638
C          0.33743        1.28866        0.05691
N          1.57704        1.84754       -0.25976
C          1.77600        3.09692       -0.89307
C          1.24027        4.25646       -0.33117
C          1.43058        5.48158       -0.96100
C          2.17146        5.55898       -2.13761
C          2.71298        4.40175       -2.69102
C          2.50777        3.16967       -2.07911
C          0.56922        0.01365        0.69014
C          2.01016       -0.16255        0.73922
C          2.84272       -1.16547        1.23512
C          4.21535       -1.02085        1.14330
C          2.58490        0.97507        0.15121
C          3.96422        1.15154        0.05638
C          4.77199        0.13258        0.56121
O          6.12766        0.16617        0.53601
C          6.75430        1.29524       -0.02823
C         -0.48612       -0.74959        1.09401
C         -1.82166       -0.28751        0.88610
C         -2.92334       -1.04076        1.28926
C         -4.23534       -0.59928        1.08434
C         -5.35835       -1.36306        1.49345
C         -6.65162       -0.93688        1.29528
C         -7.82497       -1.72034        1.71528
C         -7.71143       -2.96117        2.34862
C         -8.83307       -3.68399        2.73690
O         -8.58406       -4.87453        3.34222
C         -9.68419       -5.65099        3.75702
C         -9.12027       -1.20249        1.47097
C        -10.23782       -1.94564        1.86969
C        -10.11537       -3.17322        2.49632
C         -6.86380        0.33724        0.64555
C         -8.21564        0.80536        0.42722
C         -9.27869        0.07828        0.81715
C         -5.78594        1.09296        0.24115
C         -4.45085        0.66510        0.43972
H         -3.51460        2.38142       -0.45360
H         -1.08165        2.72158       -0.67055
H          0.68255        4.18822        0.59758
H          1.00879        6.38079       -0.52241
H          2.32495        6.51805       -2.62248
H          3.28510        4.45413       -3.61238
H          2.90337        2.25808       -2.51638
H          2.41968       -2.05455        1.69367
H          4.89103       -1.78184        1.51716
H          4.37529        2.05084       -0.38452
H          7.82701        1.11601        0.05289
H          6.49789        2.21269        0.51701
H          6.48659        1.41769       -1.08585
H         -0.32982       -1.71377        1.57091
H         -2.75790       -1.99959        1.77639
H         -5.15772       -2.31372        1.97766
H         -6.74669       -3.40690        2.56082
H         -9.26388       -6.55004        4.20945
H        -10.31954       -5.93771        2.90894
H        -10.29336       -5.12350        4.50254
H        -11.22969       -1.54319        1.67970
H        -11.00521       -3.71777        2.78958
H         -8.34915        1.76593       -0.06314
H        -10.28891        0.44206        0.64697
H         -5.96058        2.04968       -0.24670
