36
syn_C_O_diF_3-CF3.log	Energy: -865748.4275183
C         -2.40934        1.31781        0.20833
C         -3.59113        0.60549        0.37855
C         -4.85860        1.27157        0.42373
C         -5.95875        0.49993        0.59301
O         -7.25699        0.94266        0.66288
C         -5.92573       -0.92329        0.72723
C         -7.31675       -1.30150        0.88437
C         -7.85005       -2.67448        1.06184
F         -7.53791       -3.46323        0.01862
F         -7.33751       -3.26421        2.15611
F         -9.18699       -2.67066        1.18657
C         -8.02946       -0.15998        0.83621
C         -4.73553       -1.58803        0.68857
C         -3.53070       -0.83809        0.51231
C         -2.29189       -1.46991        0.46643
C         -1.09789       -0.75296        0.29477
C          0.15725       -1.39521        0.24874
C          1.32140       -0.66932        0.07914
C          2.60632       -1.29925        0.02955
F          2.66650       -2.63081        0.15234
C          3.73958       -0.57374       -0.13725
F          4.93124       -1.17991       -0.18113
C          1.27119        0.76820       -0.05471
C          2.50001        1.49185       -0.22950
C          3.69285        0.84409       -0.26946
C          0.04145        1.40132       -0.01013
C         -1.15887        0.68095        0.16213
H         -2.45247        2.39984        0.10797
H         -4.92281        2.34970        0.32563
H         -9.09127        0.02053        0.91106
H         -4.68741       -2.66771        0.78880
H         -2.24596       -2.55175        0.56659
H          0.20612       -2.47473        0.34832
H          2.45851        2.57211       -0.32971
H          4.63096        1.37223       -0.40056
H         -0.00424        2.48329       -0.11018
