35
syn_C_O_diCN_diCl.log	Energy: -1222298.5319890
C         -2.37727        1.05928        1.21931
C         -3.61995        0.56038        0.84598
C         -4.82971        1.21592        1.24477
C         -5.99630        0.66330        0.83775
O         -7.25258        1.14124        1.11604
C         -6.08592       -0.52251        0.04259
C         -7.50585       -0.72650       -0.14014
Cl        -8.24342       -2.00058       -1.01597
C         -8.12042        0.28216        0.51357
Cl        -9.76949        0.63688        0.69636
C         -4.95525       -1.17169       -0.35433
C         -3.68524       -0.64442        0.03911
C         -2.50148       -1.26893       -0.33968
C         -1.24630       -0.76652        0.03653
C         -0.04807       -1.40217       -0.34897
C          1.18411       -0.89856        0.02756
C          2.42483       -1.53197       -0.35453
C          2.37520       -2.72262       -1.15102
N          2.29155       -3.68269       -1.79507
C          3.63294       -1.00435        0.03764
C          4.86662       -1.63142       -0.33998
N          5.88166       -2.11147       -0.62653
C          1.25247        0.29935        0.82960
C          2.53930        0.80628        1.21026
C          3.68599        0.18667        0.83452
C          0.08168        0.92913        1.21190
C         -1.18246        0.42953        0.83731
H         -2.32739        1.96173        1.82360
H         -4.80217        2.11687        1.84748
H         -5.00368       -2.07271       -0.95790
H         -2.54743       -2.17144       -0.94404
H         -0.10261       -2.30386       -0.95291
H          2.58129        1.70833        1.81376
H          4.65615        0.57326        1.12468
H          0.13452        1.83154        1.81608
