45
syn_C_C_diF_p-CF3benz.log	Energy: -963518.7195265
C         -1.85932       -1.56157        1.65631
C         -2.94557       -0.73767        1.37534
C         -4.23476       -0.96061        1.92721
C         -5.29930       -0.14035        1.64339
C         -6.60045       -0.39603        2.22227
C         -7.65571        0.39495        1.95735
C         -5.12996        0.99420        0.75731
C         -6.29570        1.84821        0.48117
C         -6.22436        2.96815       -0.36231
C         -7.33612        3.75137       -0.60563
C         -7.24523        4.96431       -1.48946
F         -6.06451        5.05195       -2.12305
F         -8.20691        4.95835       -2.42994
F         -7.40381        6.09853       -0.78317
C         -7.53709        1.54100        1.07976
C         -8.65646        2.35076        0.82003
C         -8.56680        3.44535       -0.01192
C         -3.88944        1.22267        0.21491
C         -2.77089        0.38825        0.49275
C         -1.51779        0.63073       -0.06321
C         -0.41832       -0.19488        0.21510
C          0.85466        0.04558       -0.34489
C          1.92574       -0.77911       -0.05798
C          3.22571       -0.55345       -0.61488
F          3.39266        0.49047       -1.43575
C          4.26734       -1.37098       -0.32386
F          5.47447       -1.14425       -0.85339
C          1.75982       -1.90988        0.82653
C          2.89503       -2.74647        1.10348
C          4.10642       -2.48662        0.54819
C          0.51425       -2.15001        1.37764
C         -0.59446       -1.32196        1.09954
H         -1.99248       -2.41081        2.32265
H         -4.37674       -1.80814        2.59402
H         -6.70325       -1.25255        2.88305
H         -8.62647        0.18932        2.39981
H         -5.29171        3.23721       -0.84181
H         -9.60509        2.10037        1.28678
H         -9.43645        4.06337       -0.20957
H         -3.72058        2.06081       -0.45350
H         -1.38455        1.47991       -0.72951
H          0.99079        0.89192       -1.01032
H          2.76665       -3.59497        1.76850
H          4.97494       -3.10563        0.74474
H          0.38144       -2.99903        2.04415
