56
syn_S_NPh_p-CF3benz_benz.log	Energy: -1267794.4645055
C         -3.85341       -2.00551        1.06228
C         -4.77045       -1.24939        0.32621
C         -6.17662       -1.43666        0.47315
C         -7.02026       -0.66360       -0.27226
N         -8.41219       -0.66226       -0.32162
C         -9.26097       -1.49487        0.44716
C         -9.17663       -1.47904        1.83975
C        -10.00406       -2.30642        2.59129
C        -10.93012       -3.13323        1.96049
C        -11.01901       -3.13887        0.57096
C        -10.17949       -2.33082       -0.18840
C         -6.53484        0.31720       -1.20893
C         -7.70870        0.91268       -1.82715
C         -7.87883        1.90815       -2.78453
C         -9.16803        2.26926       -3.15938
C         -8.83266        0.28520       -1.25772
C        -10.12780        0.64673       -1.61708
C        -10.27523        1.64407       -2.57583
C         -5.19362        0.51191       -1.36439
C         -4.27065       -0.26180       -0.59981
C         -2.89127       -0.08917       -0.73092
C         -1.97828       -0.84544        0.00661
C         -0.57170       -0.66628       -0.13164
C          0.30141       -1.42056        0.60098
C          1.76046       -1.39184        0.60312
C          2.61074       -0.57960       -0.14441
C          3.98507       -0.70517        0.00685
C          4.91461        0.12354       -0.83518
F          5.34439       -0.55642       -1.91428
F          4.32449        1.24320       -1.28669
F          6.01011        0.49369       -0.14910
C          2.31152       -2.32435        1.49674
C          3.68956       -2.45289        1.65067
C          4.52312       -1.63779        0.89956
C         -0.20789       -2.40255        1.51842
S          1.09093       -3.25840        2.35583
C         -1.54423       -2.60896        1.68409
C         -2.47495       -1.83234        0.92903
H         -4.22648       -2.75203        1.75989
H         -6.54957       -2.18633        1.16375
H         -8.46697       -0.81429        2.32230
H         -9.93343       -2.29392        3.67463
H        -11.58050       -3.77164        2.55025
H        -11.73512       -3.78542        0.07306
H        -10.22408       -2.34596       -1.27299
H         -7.01621        2.39669       -3.22859
H         -9.31814        3.04278       -3.90559
H        -10.99158        0.17356       -1.16243
H        -11.27563        1.94364       -2.87374
H         -4.81227        1.24680       -2.06863
H         -2.51728        0.65618       -1.42969
H         -0.20667        0.08150       -0.83143
H          2.20443        0.15028       -0.83654
H          4.10794       -3.17316        2.34594
H          5.59920       -1.71882        1.00936
H         -1.92012       -3.35379        2.37969
