41
syn_C_O_2-CN_p-CNbenz.log	Energy: -741914.0223486
C         -3.32958        1.10765        0.81203
C         -2.04781        0.62476        0.58485
C         -0.89587        1.28448        1.12943
C          0.31700        0.74988        0.86084
O          1.52118        1.24794        1.29849
C          0.51207       -0.43040        0.06826
C          1.95383       -0.62917        0.04754
C          2.80413       -1.56349       -0.52472
C          4.18034       -1.41953       -0.31645
C          5.08708       -2.37032       -0.89592
N          5.81820       -3.13835       -1.36443
C          2.48746        0.41991        0.80863
C          3.84558        0.58118        1.02741
C          4.69103       -0.35818        0.45132
C         -0.56024       -1.07893       -0.46201
C         -1.87739       -0.56970       -0.21938
C         -2.99862       -1.20084       -0.74228
C         -4.29721       -0.71444       -0.51431
C         -5.43678       -1.35175       -1.04346
C         -6.71160       -0.86137       -0.81132
C         -7.87258       -1.50486       -1.34702
C         -9.11996       -1.00367       -1.10562
C        -10.27489       -1.66015       -1.65020
N        -11.21259       -2.18421       -2.08650
C         -6.88387        0.32725       -0.01103
C         -8.21691        0.81447        0.21403
C         -9.29619        0.18146       -0.30795
C         -5.77048        0.96020        0.51322
C         -4.46729        0.47238        0.28482
H         -3.46003        2.00321        1.41473
H         -1.00513        2.17878        1.73295
H          2.42382       -2.38710       -1.11937
H          4.22585        1.40380        1.62122
H          5.76337       -0.27760        0.59193
H         -0.44051       -1.97417       -1.06554
H         -2.87070       -2.09663       -1.34560
H         -5.30856       -2.24746       -1.64674
H         -7.74951       -2.39945       -1.95001
H         -8.34594        1.70913        0.81646
H        -10.30063        0.55244       -0.13596
H         -5.89874        1.85595        1.11638
