43
syn_C_C_3-F_m-CNbenz.log	Energy: -747688.3470690
C         -2.21220       -1.11752       -1.16672
C         -3.22901       -0.40731       -0.53474
C         -4.59626       -0.55207       -0.89084
C         -5.59145        0.15367       -0.26042
C         -6.97508       -0.01838       -0.64833
C         -7.96438        0.66260       -0.04400
C         -5.26497        1.08176        0.80432
C         -6.35857        1.81898        1.45488
C         -6.13857        2.73901        2.49475
C         -7.17904        3.42054        3.09204
C         -7.68825        1.60137        1.02499
C         -8.74141        2.29545        1.63426
C         -8.49643        3.19864        2.65949
C         -9.58576        3.90332        3.27539
N        -10.46374        4.47299        3.77383
C         -3.94721        1.23300        1.16052
C         -2.89841        0.51371        0.52318
C         -1.56622        0.67583        0.89362
C         -0.53662       -0.03637        0.26142
C          0.81601        0.12306        0.63198
C          1.81561       -0.58773       -0.00300
C          3.19911       -0.44857        0.34977
F          3.48701        0.41416        1.33761
C          4.18940       -1.13722       -0.26248
C          1.49581       -1.51357       -1.06483
C          2.56496       -2.23399       -1.70050
C          3.85396       -2.05085       -1.31323
C          0.17177       -1.67357       -1.43189
C         -0.86798       -0.95881       -0.79828
H         -2.46390       -1.81200       -1.96497
H         -4.85639       -1.24473       -1.68804
H         -7.19532       -0.71944       -1.44867
H         -8.99855        0.52297       -0.34584
H         -5.13303        2.93162        2.85026
H         -6.98677        4.12617        3.89289
H         -9.75986        2.12345        1.29925
H         -3.65939        1.91703        1.95236
H         -1.31418        1.37042        1.69179
H          1.07066        0.81532        1.42805
H          5.21834       -0.99165        0.04598
H          2.31844       -2.92858       -2.49816
H          4.65452       -2.59933       -1.79927
H         -0.07999       -2.36796       -2.23009
