51
syn_S_NPh_m-CNbenz_2-CF3.log	Energy: -1229264.7779199
C         -3.61160        1.13039        0.11795
C         -4.64864        0.18954        0.04014
C         -6.01108        0.58851        0.06912
C         -6.97097       -0.38463       -0.01269
N         -8.35275       -0.26476        0.00222
C         -9.05088        0.97726        0.04615
C         -8.96997        1.84093       -1.04456
C         -9.62264        3.06754       -0.99852
C        -10.36077        3.42377        0.12774
C        -10.43785        2.55584        1.21329
C         -9.77439        1.33356        1.18086
C         -6.65536       -1.78257       -0.12090
C         -7.91289       -2.48246       -0.17911
C         -8.88886       -1.54308       -0.10560
C        -10.36407       -1.78270       -0.13575
F        -10.97266       -1.03615       -1.06957
F        -10.62015       -3.06877       -0.40387
F        -10.94745       -1.49428        1.04281
C         -5.34302       -2.18336       -0.14848
C         -4.31040       -1.21169       -0.07009
C         -2.95892       -1.58128       -0.09571
C         -1.93471       -0.64141       -0.01803
C         -0.56124       -1.02582       -0.04400
C          0.42602       -0.08542        0.03392
C          1.87199       -0.27592        0.02408
C          2.58974       -1.46975       -0.06702
C          3.97462       -1.44759       -0.06018
C          2.56871        0.94114        0.12236
C          3.95606        0.98216        0.13053
C          4.65522       -0.22407        0.03830
C          6.09156       -0.20954        0.04458
N          7.25076       -0.20066        0.04936
C          0.07612        1.30687        0.14282
S          1.50447        2.34203        0.22908
C         -1.21942        1.72196        0.17176
C         -2.27151        0.75634        0.09201
H         -3.86520        2.18470        0.20174
H         -6.27099        1.63892        0.15568
H         -8.40072        1.54136       -1.91893
H         -9.56226        3.74137       -1.84741
H        -10.87554        4.37904        0.15913
H        -11.00886        2.83302        2.09377
H         -9.81515        0.65379        2.02436
H         -8.06575       -3.54711       -0.27024
H         -5.08114       -3.23490       -0.22782
H         -2.70457       -2.63578       -0.17845
H         -0.31710       -2.08199       -0.12681
H          2.06550       -2.41729       -0.14324
H          4.54121       -2.36939       -0.13036
H          4.49502        1.92029        0.20622
H         -1.47534        2.77429        0.25456
