43
syn_O_O_3-CF3_m-OMebenz.log	Energy: -908091.4332359
C         -3.22597        0.65640        1.21924
C         -1.93867        0.43230        0.73450
C         -0.78423        0.89560        1.44401
C          0.43098        0.63596        0.90483
O          1.63563        1.00504        1.44902
C          0.62245       -0.07183       -0.32791
C          2.06347       -0.11467       -0.51018
C          2.93401       -0.63441       -1.46970
C          4.29748       -0.47529       -1.29798
C          2.60190        0.54939        0.59217
C          3.96034        0.72938        0.80004
C          4.81042        0.20029       -0.17392
O          6.16028        0.28807       -0.12364
C          6.74374        0.95232        0.97563
C         -0.46060       -0.52286       -1.02234
C         -1.77431       -0.28291       -0.50942
C         -2.90871       -0.72675       -1.18692
C         -4.20298       -0.50369       -0.70326
C         -5.34689       -0.96827       -1.41475
C         -6.58925       -0.72430       -0.89813
C         -7.95208       -1.01743       -1.29572
C         -8.38710       -1.74170       -2.51461
F         -7.97885       -1.11662       -3.63330
F         -7.87351       -2.98388       -2.56084
F         -9.72468       -1.85015       -2.57274
C         -8.74736       -0.49926       -0.33973
C         -6.72340       -0.01685        0.33173
O         -8.05232        0.10928        0.65414
C         -5.67479        0.45139        1.05657
C         -4.36585        0.21118        0.54065
H         -3.34966        1.19479        2.15603
H         -0.88940        1.43437        2.37955
H          2.55163       -1.15736       -2.34085
H          5.00490       -0.86501       -2.02134
H          4.31528        1.25458        1.67715
H          7.82142        0.90639        0.81644
H          6.49530        0.45563        1.92214
H          6.42842        2.00238        1.02298
H         -0.34762       -1.06192       -1.95886
H         -2.78553       -1.26537       -2.12388
H         -5.22003       -1.50558       -2.34944
H         -9.82172       -0.48762       -0.23456
H         -5.81616        0.98620        1.98951
