52
syn_C_O_m-CF3benz_m-OMebenz.log	Energy: -1005861.7250182
C         -3.29530        0.72905       -0.94970
C         -1.98863        0.44821       -0.55982
C         -0.86916        1.07191       -1.20094
C          0.36934        0.74555       -0.76185
O          1.54574        1.24634       -1.26042
C          0.61996       -0.18387        0.30256
C          2.06703       -0.22115        0.42800
C          2.98213       -0.89302        1.24038
C          4.33485       -0.66538        1.06134
C          2.55147        0.65953       -0.53937
C          3.89735        0.91450       -0.74977
C          4.79281        0.23015        0.07570
O          6.13753        0.36413        0.00246
C          6.66774        1.24585       -0.96289
C         -0.42696       -0.79162        0.92889
C         -1.76418       -0.49326        0.51577
C         -2.86162       -1.09251        1.13029
C         -4.17563       -0.80918        0.73734
C         -5.29315       -1.41735        1.36199
C         -6.58839       -1.14291        0.98229
C         -7.75737       -1.76430        1.61963
C         -7.64625       -2.69243        2.67093
C         -8.76034       -3.25945        3.25384
C         -9.05193       -1.42267        1.16858
C        -10.17880       -2.00694        1.76925
C        -10.03921       -2.91359        2.79960
C        -11.23836       -3.57294        3.42035
F        -11.15166       -3.58830        4.76276
F        -12.38560       -2.95429        3.09817
F        -11.35427       -4.85478        3.02668
C         -6.80472       -0.20047       -0.09127
C         -8.15666        0.10353       -0.50378
C         -9.21819       -0.47175        0.09050
C         -5.73078        0.39996       -0.71099
C         -4.39667        0.12527       -0.32906
H         -3.46706        1.43664       -1.75761
H         -1.01952        1.77982       -2.00888
H          2.64231       -1.58589        2.00393
H          5.07575       -1.16819        1.67270
H          4.20962        1.60997       -1.51779
H          7.75099        1.20070       -0.84753
H          6.32758        2.27558       -0.79500
H          6.39802        0.93555       -1.98032
H         -0.26814       -1.49958        1.73757
H         -2.69270       -1.80052        1.93884
H         -5.08689       -2.11867        2.16433
H         -6.67022       -2.97838        3.04589
H         -8.64763       -3.96899        4.06698
H        -11.16768       -1.73363        1.41521
H         -8.29424        0.81563       -1.31298
H        -10.22891       -0.23353       -0.22915
H         -5.90915        1.10745       -1.51780
