47
syn_O_NPh_C_tetFbenz.log	Energy: -1006286.5017651
C         -3.46652        1.25493       -0.12831
C         -2.15416        0.78209       -0.07852
C         -1.04360        1.67614        0.00015
C          0.21315        1.14945        0.05126
N          1.44665        1.80478        0.12304
C          1.60548        3.21712        0.10098
C          1.04707        3.98343        1.12232
C          1.17035        5.36856        1.08956
C          1.86301        5.98467        0.05097
C          2.42558        5.21284       -0.96265
C          2.28882        3.82978       -0.94721
C          0.44954       -0.26816        0.00882
C          1.88972       -0.43753        0.05017
C          2.70454       -1.55856        0.04981
F          2.17508       -2.78335       -0.01176
C          4.08158       -1.41264        0.11565
F          4.88315       -2.47851        0.11242
C          2.45698        0.85175        0.11702
C          3.83758        1.00279        0.20077
F          4.42281        2.20142        0.29144
C          4.63608       -0.13446        0.19063
F          5.95875       -0.00475        0.26113
C         -0.59385       -1.14464       -0.06588
C         -1.92851       -0.64307       -0.10739
C         -3.02483       -1.50310       -0.18116
C         -4.34019       -1.03168       -0.22949
C         -5.44639       -1.92870       -0.30439
C         -6.71667       -1.42183       -0.35026
C         -8.05288       -1.97767       -0.42703
C         -8.88978       -0.92418       -0.43863
C         -6.91025       -0.00585       -0.32246
O         -8.24561        0.28106       -0.37722
C         -5.90071        0.90061       -0.25194
C         -4.56646        0.39528       -0.20277
H         -3.64003        2.32848       -0.10838
H         -1.21435        2.74776        0.01491
H          0.52540        3.48832        1.93547
H          0.73445        5.96525        1.88481
H          1.96545        7.06519        0.03152
H          2.96525        5.68932       -1.77508
H          2.71046        3.22034       -1.74001
H         -0.42116       -2.21546       -0.09918
H         -2.84993       -2.57664       -0.20244
H         -5.26295       -2.99929       -0.32381
H         -8.33114       -3.02036       -0.46723
H         -9.96657       -0.85827       -0.48719
H         -6.09129        1.96834       -0.23338
