49
syn_C_S_p-CF3benz_m-CNbenz.log	Energy: -1194553.9660713
C         -3.42372        0.91518       -1.10116
C         -2.09270        0.62089       -0.81516
C         -1.01727        1.28744       -1.48019
C          0.26766        0.96603       -1.16651
S          1.72061        1.67478       -1.87460
C          0.58081       -0.03229       -0.17800
C          2.02156       -0.19647       -0.02031
C          2.70832       -1.06065        0.83425
C          4.09323       -1.07158        0.84040
C          2.74852        0.65651       -0.86855
C          4.13662        0.65893       -0.87568
C          4.80448       -0.21350       -0.01286
C          6.24086       -0.23091       -0.00038
N          7.39983       -0.24659        0.01135
C         -0.43010       -0.68280        0.47053
C         -1.79310       -0.38183        0.17744
C         -2.84042       -1.03294        0.82697
C         -4.17809       -0.73764        0.54008
C         -5.24776       -1.39637        1.19772
C         -6.56613       -1.11213        0.92233
C         -7.68753       -1.78388        1.59398
C         -7.49543       -2.77339        2.57188
C         -8.56875       -3.38955        3.18466
C         -8.35316       -4.42554        4.25295
F         -7.07067       -4.81489        4.33956
F         -8.71115       -3.96255        5.46439
F         -9.09310       -5.52528        4.02568
C         -9.01138       -1.43098        1.25170
C        -10.09067       -2.06964        1.88822
C         -9.88160       -3.03866        2.84438
C         -6.85954       -0.10608       -0.07281
C         -8.23818        0.20723       -0.37586
C         -9.25403       -0.41702        0.24835
C         -5.83448        0.54476       -0.72277
C         -4.47561        0.26097       -0.44812
H         -3.65304        1.67076       -1.84896
H         -1.24630        2.04188       -2.22713
H          2.16037       -1.72513        1.49504
H          4.63645       -1.73879        1.50020
H          4.69926        1.31638       -1.52948
H         -0.21311       -1.43965        1.21996
H         -2.61287       -1.78893        1.57524
H         -4.98393       -2.14460        1.93819
H         -6.49636       -3.07432        2.86086
H        -11.10334       -1.78861        1.61278
H        -10.71980       -3.52938        3.32792
H         -8.43415        0.96695       -1.12760
H        -10.28492       -0.17064        0.00974
H         -6.07107        1.29954       -1.46928
