47
syn_O_NPh_diF_tetFbenz.log	Energy: -1130784.2051638
C         -3.47784        1.28219       -0.16770
C         -2.16827        0.80048       -0.10558
C         -1.05411        1.68735       -0.01373
C          0.19907        1.15222        0.04871
N          1.43454        1.79923        0.13438
C          1.60232        3.21117        0.11897
C          1.04625        3.97624        1.14234
C          1.17865        5.36070        1.11583
C          1.87783        5.97654        0.08145
C          2.43798        5.20557       -0.93419
C          2.29237        3.82334       -0.92495
C          0.42638       -0.26689        0.00581
C          1.86478       -0.44560        0.06181
C          2.67258       -1.57199        0.06740
F          2.13610       -2.79295       -0.00193
C          4.04955       -1.43424        0.14729
F          4.84473       -2.50438        0.15017
C          2.43911        0.83981        0.13705
C          3.81964        0.98288        0.23417
F          4.41042        2.17785        0.33198
C          4.61104       -0.15926        0.23006
F          5.93329       -0.03801        0.31369
C         -0.62185       -1.13658       -0.08132
C         -1.95232       -0.62569       -0.13544
C         -3.05344       -1.47923       -0.22244
C         -4.36426       -0.99901       -0.28311
C         -5.47562       -1.88959       -0.37152
C         -6.73588       -1.36578       -0.42858
C         -8.07366       -1.89534       -0.51985
F         -8.41090       -3.18080       -0.57530
C         -8.90325       -0.83749       -0.53749
F        -10.20694       -0.76683       -0.61011
C         -6.92474        0.05071       -0.39960
O         -8.26643        0.35563       -0.46752
C         -5.91172        0.94685       -0.31682
C         -4.58028        0.42934       -0.25526
H         -3.64474        2.35666       -0.14709
H         -1.21776        2.76002        0.00210
H          0.51972        3.48098        1.95230
H          0.74497        5.95691        1.91263
H          1.98745        7.05641        0.06696
H          2.98287        5.68208       -1.74306
H          2.71240        3.21438       -1.71899
H         -0.45618       -2.20838       -0.11500
H         -2.88532       -2.55361       -0.24441
H         -5.30892       -2.96189       -0.39226
H         -6.09541        2.01562       -0.29766
