42
syn_C_O_diCl_p-CF3benz.log	Energy: -1414413.3261392
C         -3.38768        1.15587        0.60273
C         -2.09699        0.66573        0.45333
C         -0.95603        1.43270        0.86330
C          0.26676        0.88272        0.68344
O          1.46157        1.47237        1.01708
C          0.48123       -0.41510        0.10928
C          1.92614       -0.58729        0.11142
C          2.79331       -1.59517       -0.29317
C          4.15945       -1.39608       -0.12190
C          5.14275       -2.43555       -0.58333
F          4.55441       -3.61905       -0.82169
F          5.75914       -2.06323       -1.72014
F          6.10900       -2.64165        0.32918
C          2.44212        0.58648        0.67157
C          3.79849        0.80334        0.84979
C          4.65387       -0.21235        0.44173
C         -0.58118       -1.16661       -0.28953
C         -1.90700       -0.64828       -0.12923
C         -3.01828       -1.38380       -0.52293
C         -4.32481       -0.89038       -0.37274
C         -5.45076       -1.63944       -0.77308
C         -6.73685       -1.15105       -0.62383
C         -7.91361       -1.89116       -1.02270
Cl        -7.71152       -3.46871       -1.72320
C         -9.15847       -1.36166       -0.85249
Cl       -10.59706       -2.21661       -1.31753
C         -6.92683        0.15877       -0.04338
C         -8.25942        0.66509        0.11144
C         -9.33366       -0.06254       -0.27610
C         -5.82632        0.89910        0.35154
C         -4.51243        0.41319        0.20511
H         -3.53471        2.14093        1.03918
H         -1.08066        2.41715        1.30087
H          2.41906       -2.51532       -0.72752
H          4.16859        1.72182        1.28987
H          5.72473       -0.09010        0.56590
H         -0.44627       -2.15180       -0.72697
H         -2.87506       -2.36936       -0.95978
H         -5.29193       -2.62066       -1.20704
H         -8.39467        1.65006        0.54834
H        -10.34297        0.31583       -0.16113
H         -5.97903        1.88364        0.78735
