51
syn_C_NPh_3-CN_tetFbenz.log	Energy: -1065533.9640590
C         -3.43050        1.30222       -0.10080
C         -2.12537        0.82406       -0.10517
C         -1.00907        1.70473        0.05355
C          0.24451        1.17337        0.04491
N          1.47853        1.81499        0.17225
C          1.64023        3.22360        0.28269
C          1.10458        3.88794        1.38426
C          1.23067        5.26981        1.48190
C          1.90325        5.98215        0.49284
C          2.44301        5.31117       -0.60176
C          2.30342        3.93298       -0.71605
C          0.47850       -0.23766       -0.13675
C          1.91910       -0.41077       -0.12086
C          2.73157       -1.52756       -0.23557
F          2.19968       -2.73910       -0.41163
C          4.10947       -1.38912       -0.16576
F          4.90953       -2.44925       -0.27769
C          2.48778        0.86526        0.06657
C          3.86847        1.00773        0.15373
F          4.45512        2.19165        0.35424
C          4.66550       -0.12423        0.02798
F          5.98791       -0.00221        0.10061
C         -0.56338       -1.10157       -0.28955
C         -1.90170       -0.59769       -0.27457
C         -2.99121       -1.44714       -0.42534
C         -4.31071       -0.96626       -0.41983
C         -5.41717       -1.82713       -0.57280
C         -6.71179       -1.34151       -0.56674
C         -7.87005       -2.19566       -0.72113
C         -7.67948       -3.60778       -0.88788
N         -7.50819       -4.74704       -1.02147
C         -9.13642       -1.68131       -0.71062
C         -6.94160        0.07301       -0.40107
C         -8.29106        0.56107       -0.39735
C         -9.34833       -0.28074       -0.54610
C         -5.86049        0.92522       -0.25000
C         -4.53471        0.44715       -0.25368
H         -3.60461        2.36842        0.02437
H         -1.17667        2.77000        0.17425
H          0.59895        3.31719        2.15700
H          0.81314        5.78781        2.33966
H          2.00816        7.05945        0.57516
H          2.96711        5.86318       -1.37556
H          2.70717        3.40211       -1.57219
H         -0.39301       -2.16410       -0.42779
H         -2.81997       -2.51350       -0.55221
H         -5.24064       -2.89247       -0.69765
H         -9.98690       -2.34454       -0.82844
H         -8.45057        1.62866       -0.27184
H        -10.36349        0.10187       -0.54146
H         -6.03586        1.99133       -0.12528
