32
syn_O_O_C_diCN.log	Energy: -644133.0083308
C          1.08687       -1.19542       -0.00130
C          2.25399       -0.42777       -0.00011
C          3.54247       -1.04311       -0.00068
C          4.62010       -0.21838        0.00056
O          5.93773       -0.60952        0.00026
C          4.53373        1.20309        0.00237
C          5.91091        1.65617        0.00322
C          6.36981        2.99947        0.00508
N          6.70721        4.10831        0.00658
C          6.67493        0.52850        0.00180
C          8.08991        0.38954        0.00183
N          9.24446        0.29507        0.00190
C          3.31414        1.82165        0.00295
C          2.14112        1.01448        0.00172
C          0.86785        1.59242        0.00225
C         -0.29794        0.82544        0.00106
C         -1.58662        1.43948        0.00163
C         -2.70191        0.64855        0.00043
C         -4.13275        0.87628        0.00048
C         -4.69909       -0.34402       -0.00119
C         -2.55771       -0.77540       -0.00138
O         -3.78862       -1.36548       -0.00234
C         -1.36336       -1.42123       -0.00201
C         -0.18354       -0.61659       -0.00077
H          1.17081       -2.27945       -0.00268
H          3.64606       -2.12243       -0.00205
H          3.23030        2.90429        0.00434
H          0.78456        2.67674        0.00363
H         -1.65994        2.52309        0.00302
H         -4.64863        1.82487        0.00162
H         -5.73145       -0.66071       -0.00177
H         -1.29799       -2.50382       -0.00339
