49
syn_C_S_m-CNbenz_p-CF3benz.log	Energy: -1194554.2482183
C         -3.44437        1.17524       -0.77017
C         -2.11484        0.78264       -0.63282
C         -1.04527        1.54827       -1.19196
C          0.23816        1.12394       -1.03175
S          1.68512        1.92681       -1.64586
C          0.55648       -0.08054       -0.31073
C          1.99618       -0.31797       -0.27751
C          2.68427       -1.37220        0.32131
C          4.06798       -1.41912        0.23629
C          4.83905       -2.52287        0.90581
F          4.04474       -3.53225        1.29785
F          5.77265       -3.03834        0.08687
F          5.48599       -2.07836        1.99831
C          2.71670        0.67812       -0.95393
C          4.10641        0.63406       -1.04094
C          4.77675       -0.42085       -0.44168
C         -0.44850       -0.82846        0.23211
C         -1.81037       -0.42696        0.09131
C         -2.85232       -1.17510        0.63611
C         -4.18847       -0.78149        0.49795
C         -5.25274       -1.53890        1.04917
C         -6.56993       -1.15983        0.91812
C         -7.68363       -1.93418        1.48252
C         -7.49026       -3.12695        2.20210
C         -8.55047       -3.83867        2.72332
C         -9.00749       -1.47043        1.30032
C        -10.08135       -2.19715        1.83196
C         -9.86231       -3.37132        2.53801
C        -10.97208       -4.10639        3.07706
N        -11.86619       -4.70165        3.51296
C         -6.86801        0.05415        0.19238
C         -8.24505        0.47039        0.04393
C         -9.25571       -0.24755        0.56605
C         -5.84811        0.80324       -0.35023
C         -4.49069        0.42324       -0.22258
H         -3.67659        2.08700       -1.31558
H         -1.27737        2.45845       -1.73720
H          2.14533       -2.15275        0.84712
H          4.65709        1.40613       -1.56790
H          5.85870       -0.47621       -0.50156
H         -0.22772       -1.74114        0.77967
H         -2.62146       -2.08730        1.18182
H         -4.98530       -2.44298        1.58660
H         -6.49016       -3.51294        2.36135
H         -8.37900       -4.75651        3.27507
H        -11.09504       -1.83541        1.68833
H         -8.44373        1.38653       -0.50533
H        -10.28563        0.07676        0.44708
H         -6.08746        1.71431       -0.89385
