51
syn_O_NPh_3-OMe_tetFbenz.log	Energy: -1078125.6467497
C         -3.31491        1.48687       -0.43035
C         -2.02280        0.96920       -0.32789
C         -0.90115        1.81415       -0.06850
C          0.33447        1.24500        0.02482
N          1.57328        1.84980        0.26138
C          1.76692        3.25126        0.39809
C          1.14709        3.92726        1.44740
C          1.30524        5.30396        1.56799
C          2.09281        6.00009        0.65520
C          2.71586        5.31775       -0.38686
C          2.54561        3.94529       -0.52548
C          0.54029       -0.16753       -0.14813
C          1.96807       -0.38604       -0.01271
C          2.75395       -1.52622       -0.06783
F          2.20316       -2.72095       -0.29902
C          4.12431       -1.43138        0.11982
F          4.89865       -2.51594        0.06636
C          2.55819        0.87081        0.23340
C          3.93059        0.96875        0.43986
F          4.53433        2.13260        0.70164
C          4.70065       -0.18601        0.37196
F          6.01602       -0.10607        0.55833
C         -0.51408       -0.99765       -0.39621
C         -1.82865       -0.45192       -0.48911
C         -2.93516       -1.26404       -0.73922
C         -4.23028       -0.74750       -0.84081
C         -5.34757       -1.59518       -1.09703
C         -6.59054       -1.03538       -1.18698
C         -7.92557       -1.54109       -1.42736
O         -8.17366       -2.84811       -1.62947
C         -9.53223       -3.16504       -1.84947
C         -8.75720       -0.47544       -1.39801
C         -6.76522        0.37125       -1.02737
O         -8.07965        0.70327       -1.15638
C         -5.73855        1.22852       -0.78180
C         -4.42609        0.67597       -0.68161
H         -3.46338        2.55768       -0.31073
H         -1.04699        2.88343        0.04584
H          0.55057        3.36886        2.16212
H          0.82142        5.83037        2.38488
H          2.22194        7.07322        0.75584
H          3.32945        5.85692       -1.10179
H          3.01387        3.40661       -1.34297
H         -0.36509       -2.06430       -0.52875
H         -2.78556       -2.33473       -0.86015
H         -5.20153       -2.66432       -1.21682
H         -9.91303       -2.65245       -2.74301
H        -10.14453       -2.88241       -0.98265
H         -9.58171       -4.24392       -1.99688
H         -9.82321       -0.37375       -1.52444
H         -5.90192        2.29455       -0.66506
