48
syn_C_S_m-CF3benz_diCF3.log	Energy: -1463182.3245834
C         -2.47660        0.54350       -1.56157
C         -3.55383        0.65829       -0.68116
C         -4.80726        1.19046       -1.09971
C         -5.82741        1.28128       -0.19802
S         -7.43789        1.90286       -0.50220
C         -5.68184        0.85657        1.16527
C         -6.91240        1.06058        1.91252
C         -6.98048        0.68402        3.36519
F         -6.70590       -0.62333        3.52320
F         -6.05811        1.36435        4.06914
F         -8.16766        0.91667        3.92562
C         -7.89869        1.59834        1.15872
C         -9.31010        1.96232        1.55629
F         -9.96391        2.47719        0.50043
F        -10.00058        0.89663        1.97191
F         -9.33152        2.88146        2.52582
C         -4.48426        0.34078        1.59081
C         -3.39305        0.22767        0.68670
C         -2.16294       -0.29339        1.09580
C         -1.08598       -0.40727        0.21381
C          0.16589       -0.93555        0.62509
C          1.23281       -1.05187       -0.23505
C          2.53503       -1.59673        0.17574
C          2.79354       -2.04088        1.48502
C          4.02519       -2.54770        1.84362
C          3.57660       -1.68166       -0.77387
C          4.82617       -2.20031       -0.39761
C          5.05129       -2.62862        0.89400
C          6.37594       -3.20829        1.30507
F          6.26791       -4.51757        1.59486
F          7.30767       -3.08667        0.34695
F          6.85175       -2.60628        2.40974
C          1.06392       -0.61838       -1.60539
C          2.17418       -0.73328       -2.52526
C          3.35946       -1.23470       -2.13365
C         -0.14120       -0.10346       -2.02452
C         -1.24766        0.02200       -1.14861
H         -2.59597        0.86747       -2.59277
H         -4.92987        1.51527       -2.12870
H         -4.35142        0.01356        2.61634
H         -2.04314       -0.61750        2.12701
H          0.24976       -1.24908        1.66055
H          2.02035       -1.98982        2.24298
H          4.20113       -2.88117        2.86115
H          5.61879       -2.25944       -1.13638
H          2.02414       -0.40144       -3.54889
H          4.18507       -1.31554       -2.83522
H         -0.25308        0.21813       -3.05742
