46
syn_C_S_benz_p-CNbenz.log	Energy: -983111.8957628
C         -3.46510        1.15346       -0.73095
C         -2.13651        0.77110       -0.56254
C         -1.05857        1.55021       -1.08666
C          0.22323        1.13475       -0.89602
S          1.68078        1.95595       -1.46393
C          0.53226       -0.07300       -0.17814
C          1.97299       -0.29930       -0.10980
C          2.65361       -1.35065        0.49551
C          4.04800       -1.38281        0.44809
C          4.75488       -2.46633        1.07162
N          5.32438       -3.34111        1.57610
C          2.70391        0.71169       -0.75821
C          4.09584        0.68422       -0.80836
C          4.76597       -0.36689       -0.20273
C         -0.48037       -0.83383        0.33178
C         -1.84123       -0.44219        0.15920
C         -2.89084       -1.20308        0.67078
C         -4.22636       -0.81970        0.50204
C         -5.29841       -1.58961        1.02020
C         -6.61538       -1.22146        0.85992
C         -7.73774       -2.00932        1.39159
C         -7.55509       -3.20445        2.10827
C         -8.63073       -3.92353        2.59607
C         -9.05948       -1.55596        1.17954
C        -10.14157       -2.29828        1.68179
C         -9.93661       -3.46987        2.38310
C         -6.90336       -0.00401        0.13512
C         -8.27948        0.40215       -0.04579
C         -9.29524       -0.33007        0.44682
C         -5.87589        0.75769       -0.37586
C         -4.51931        0.38851       -0.21666
H         -3.69104        2.06786       -1.27477
H         -1.28349        2.46347       -1.62985
H          2.11353       -2.14365        1.00256
H          4.65085        1.46908       -1.31124
H          5.84932       -0.41082       -0.22814
H         -0.26697       -1.74968        0.87715
H         -2.66657       -2.11794        1.21491
H         -5.03828       -2.49590        1.55748
H         -6.55568       -3.58387        2.29085
H         -8.45716       -4.84343        3.14608
H        -11.15097       -1.93373        1.50879
H        -10.78132       -4.03417        2.76595
H         -8.47231        1.32044       -0.59383
H        -10.32455       -0.01222        0.30293
H         -6.10957        1.67088       -0.91868
