38
syn_S_S_diCF3_diCN.log	Energy: -1472361.7309057
C         -0.20967        1.59038        0.16240
C         -1.33880        0.77097        0.21115
C         -2.65442        1.31307        0.11885
C         -3.72566        0.47013        0.17098
S         -5.42385        0.91664        0.07634
C         -3.56250       -0.94860        0.31651
C         -4.84542       -1.62230        0.34527
C         -4.97041       -3.03544        0.48179
N         -5.01855       -4.18799        0.59487
C         -5.89745       -0.76227        0.22875
C         -7.27321       -1.11940        0.22328
N         -8.39920       -1.39493        0.21711
C         -2.31032       -1.49599        0.40774
C         -1.16600       -0.65438        0.35779
C          0.12572       -1.17793        0.44748
C          1.25525       -0.35776        0.39854
C          2.56553       -0.90167        0.49032
C          3.65821       -0.07462        0.43893
C          5.07045       -0.41293        0.51258
C          5.49249       -1.84677        0.66843
F          5.02863       -2.58348       -0.35657
F          6.81341       -2.01421        0.72181
F          4.96921       -2.36744        1.79252
C          5.87181        0.67321        0.42629
C          7.38127        0.74868        0.46059
F          7.87451        0.28245        1.61072
F          7.93431        0.06461       -0.54419
F          7.77587        2.02811        0.34218
C          3.47134        1.34101        0.29224
S          5.00600        2.18432        0.25083
C          2.23153        1.90494        0.20089
C          1.08222        1.06615        0.25176
H         -0.33855        2.66425        0.05178
H         -2.78022        2.38588        0.00860
H         -2.18551       -2.56986        0.51796
H          0.25514       -2.25167        0.55802
H          2.68194       -1.97425        0.60059
H          2.10361        2.97753        0.09012
