42
syn_S_O_benz_benz.log	Energy: -923869.3422181
C         -3.10812       -0.91366        1.97190
C         -4.21872       -0.54025        1.21266
C         -5.54704       -0.65247        1.73165
C         -6.57115       -0.26852        0.92976
O         -7.89979       -0.30866        1.26444
C         -6.39181        0.23864       -0.39742
C         -7.73764        0.51802       -0.87572
C         -8.28036        1.01756       -2.05642
C         -9.66245        1.14857       -2.14949
C         -8.58839        0.16398        0.17731
C         -9.96514        0.28514        0.10824
C        -10.49008        0.78670       -1.08086
C         -5.13535        0.35548       -0.91510
C         -4.01148       -0.03173       -0.12261
C         -2.70803        0.07068       -0.61286
C         -1.59891       -0.30366        0.14842
C         -0.27094       -0.19717       -0.35761
C          0.79873       -0.57014        0.40704
C          2.22016       -0.53808        0.07428
C          2.82686       -0.11666       -1.10999
C          4.20893       -0.16488       -1.23104
C          3.02341       -1.00521        1.12632
C          4.40947       -1.05665        1.01277
C          4.99488       -0.63261       -0.17446
C          0.57726       -1.07463        1.73521
S          2.08901       -1.49462        2.54189
C         -0.67468       -1.19402        2.26046
C         -1.80544       -0.81021        1.47885
H         -3.26254       -1.29704        2.97791
H         -5.71929       -1.03267        2.73276
H         -7.63881        1.29849       -2.88617
H        -10.10566        1.53602       -3.06121
H        -10.59654        0.00160        0.94254
H        -11.56568        0.89812       -1.17762
H         -4.97144        0.73723       -1.91913
H         -2.55237        0.45395       -1.61909
H         -0.12508        0.18671       -1.36427
H          2.21873        0.24749       -1.93319
H          4.68160        0.16269       -2.15159
H          5.02167       -1.41969        1.83228
H          6.07501       -0.66651       -0.27884
H         -0.83233       -1.57662        3.26482
