58
syn_O_NPh_p-OMebenz_m-CNbenz.log	Energy: -983380.5844803
C         -3.51473        0.96356        0.04246
C         -4.58685        0.06620        0.01550
C         -5.93840        0.52170        0.02318
C         -6.93927       -0.40628       -0.00815
N         -8.32231       -0.22174        0.00465
C         -8.98616        1.03066        0.02426
C         -8.74420        1.96029       -0.98716
C         -9.39130        3.19084       -0.96077
C        -10.29353        3.48751        0.05774
C        -10.53945        2.55299        1.06004
C         -9.87905        1.32883        1.05333
C         -6.67296       -1.81966       -0.03331
C         -7.96567       -2.48255       -0.03713
C         -8.34958       -3.81924       -0.06701
C         -9.70058       -4.13693       -0.07760
C         -8.94354       -1.46605       -0.01332
C        -10.29996       -1.76182       -0.03524
C        -10.66173       -3.11242       -0.06480
C        -12.05633       -3.45807       -0.08281
N        -13.18150       -3.73731       -0.09544
C         -5.38641       -2.27708       -0.04059
C         -4.30626       -1.34816       -0.01996
C         -2.97607       -1.77656       -0.02854
C         -1.90762       -0.87986       -0.00271
C         -0.55368       -1.33663       -0.01165
C          0.45974       -0.42517        0.01529
C          1.91352       -0.49759        0.01726
C          2.83744       -1.53113       -0.00777
C          4.19817       -1.21162        0.00466
O          5.04569       -2.27579       -0.02116
C          6.43121       -2.02344       -0.00893
C          2.35070        0.83188        0.05407
C          3.68747        1.16844        0.06674
C          4.61637        0.12578        0.04143
C          0.15963        0.97600        0.05212
O          1.30476        1.72504        0.07515
C         -1.10322        1.47127        0.06232
C         -2.18618        0.53666        0.03458
H         -3.72362        2.03051        0.07085
H         -6.14778        1.58609        0.05825
H         -8.05565        1.70948       -1.78802
H         -9.19978        3.91432       -1.74717
H        -10.80426        4.44523        0.07010
H        -11.23833        2.78069        1.85885
H        -10.04497        0.60332        1.84385
H         -7.60274       -4.60690       -0.08481
H        -10.02519       -5.17106       -0.09874
H        -11.05612       -0.98509       -0.03430
H         -5.16978       -3.34211       -0.05749
H         -2.76733       -2.84401       -0.05537
H         -0.35258       -2.40411       -0.03958
H          2.53874       -2.57356       -0.03636
H          6.91491       -3.00070       -0.03227
H          6.73763       -1.49144        0.90140
H          6.74503       -1.44515       -0.88798
H          4.00732        2.20388        0.09533
H          5.67117        0.37309        0.05087
H         -1.29508        2.53846        0.09077
