48
syn_S_NPh_3-F_m-CNbenz.log	Energy: -1080076.7617722
C         -3.45558        1.30341       -0.17196
C         -2.14557        0.82402       -0.12409
C         -1.03007        1.71250       -0.06359
C          0.22496        1.17992       -0.01547
N          1.46079        1.82381        0.03452
C          1.65706        3.22774        0.07086
C          1.09137        3.98081        1.09953
C          1.27942        5.35838        1.12782
C          2.04632        5.98201        0.14682
C          2.61712        5.22510       -0.87285
C          2.41499        3.84977       -0.92089
C          0.45676       -0.24125       -0.03863
C          1.89801       -0.42340        0.00125
C          2.71496       -1.54915        0.01123
C          4.09219       -1.38689        0.06879
C          2.46904        0.86552        0.04496
C          3.84333        1.04994        0.11444
C          4.64435       -0.09632        0.12271
C          6.07192        0.05425        0.18850
N          7.22372        0.17571        0.23966
C         -0.59428       -1.10919       -0.09639
C         -1.92785       -0.60382       -0.13745
C         -3.02763       -1.46015       -0.19500
C         -4.33939       -0.97891       -0.24167
C         -5.45583       -1.85753       -0.30040
C         -6.72309       -1.34246       -0.34542
C         -7.98882       -2.03518       -0.40783
F         -8.02809       -3.36990       -0.42873
C         -9.07127       -1.24171       -0.44116
C         -6.93663        0.07561       -0.33401
S         -8.65470        0.46269       -0.39936
C         -5.89079        0.95109       -0.27842
C         -4.55842        0.44612       -0.23038
H         -3.62386        2.37788       -0.16385
H         -1.19552        2.78511       -0.06163
H          0.51400        3.48078        1.87093
H          0.83646        5.94374        1.92758
H          2.19918        7.05621        0.17727
H          3.21212        5.70681       -1.64242
H          2.83536        3.25375       -1.72516
H          2.28289       -2.54442       -0.02293
H          4.75040       -2.24820        0.07557
H          4.28753        2.03743        0.16515
H         -0.43436       -2.18403       -0.11630
H         -2.86023       -2.53493       -0.20472
H         -5.29755       -2.93195       -0.30935
H        -10.10453       -1.55436       -0.48852
H         -6.05131        2.02537       -0.27008
