45
syn_S_S_benz_m-CF3benz.log	Energy: -1337985.7779390
C         -3.53147        1.24582       -0.05613
C         -4.59173        0.33709       -0.04402
C         -5.95105        0.77170       -0.06301
C         -6.95164       -0.15320       -0.05031
S         -8.68313        0.18618       -0.06976
C         -6.67929       -1.56438       -0.01798
C         -7.91054       -2.34738       -0.00969
C         -8.05993       -3.73551        0.01616
C         -9.32806       -4.29243        0.01676
C         -9.05545       -1.53621       -0.03482
C        -10.33360       -2.08410       -0.03366
C        -10.45757       -3.46727       -0.00825
C        -11.81988       -4.10478        0.03904
F        -11.90098       -5.15454       -0.79695
F        -12.10249       -4.56688        1.27031
F        -12.79530       -3.24572       -0.29619
C         -5.38438       -2.00209        0.00073
C         -4.30438       -1.07295       -0.01145
C         -2.97302       -1.49491        0.00746
C         -1.91303       -0.58643       -0.00443
C         -0.55491       -1.01912        0.01519
C          0.46619       -0.11108        0.00308
C          1.90649       -0.34998        0.01939
C          2.58540       -1.56926        0.05150
C          3.97336       -1.58414        0.06272
C          2.64365        0.84420       -0.00112
C          4.03520        0.83773        0.00993
C          4.69301       -0.38631        0.04204
C          0.16354        1.29497       -0.03002
S          1.62326        2.28421       -0.04082
C         -1.11905        1.75485       -0.04962
C         -2.20069        0.82365       -0.03727
H         -3.74815        2.31130       -0.08078
H         -6.16461        1.83636       -0.08738
H         -7.18543       -4.37876        0.03288
H         -9.45001       -5.37010        0.03143
H        -11.21450       -1.45281       -0.05610
H         -5.15852       -3.06518        0.02529
H         -2.75621       -2.56062        0.03214
H         -0.34749       -2.08593        0.04004
H          2.02888       -2.50202        0.06767
H          4.50263       -2.53138        0.08772
H          4.59612        1.76682       -0.00608
H          5.77839       -0.40870        0.05109
H         -1.33840        2.81836       -0.07445
