30
syn_S_O_diCl_3-Cl.log	Energy: -1596258.3959083
C         -0.18667        1.32306        0.03072
C         -1.31362        0.50276        0.12704
C         -2.63185        1.04580        0.04580
C         -3.67137        0.17842        0.14924
O         -5.00030        0.50129        0.09651
C         -3.51303       -1.22851        0.33243
C         -4.86897       -1.72874        0.38596
Cl        -5.33331       -3.37288        0.59449
C         -5.68784       -0.66932        0.24225
C         -2.26489       -1.77725        0.41366
C         -1.12985       -0.91969        0.31231
C          0.16950       -1.42841        0.38894
C          1.29375       -0.60650        0.29242
C          2.61274       -1.13645        0.37209
C          3.69297       -0.30334        0.27409
C          5.10499       -0.62806        0.32834
Cl         5.67054       -2.24240        0.54119
C          5.90409        0.45127        0.19660
Cl         7.61681        0.47101        0.20947
C          3.49863        1.10863        0.09041
S          5.03404        1.96546       -0.00651
C          2.25333        1.65691        0.00883
C          1.10928        0.81057        0.10803
H         -0.32438        2.39275       -0.10850
H         -2.78762        2.11012       -0.09301
H         -6.76396       -0.59122        0.22330
H         -2.12659       -2.84526        0.55292
H          0.30862       -2.49789        0.52833
H          2.75313       -2.20447        0.51112
H          2.11282        2.72489       -0.13015
