36
syn_C_C_C_3-F.log	Energy: -593441.4461132
C         -2.33401        0.61209        1.61639
C         -3.59922        0.26760        1.13241
C         -4.78871        0.67431        1.78246
C         -6.03667        0.33165        1.30137
C         -7.25405        0.73783        1.95210
C         -8.46412        0.38202        1.45049
C         -6.12421       -0.46618        0.09741
C         -7.43970       -0.80150       -0.37031
F         -7.51220       -1.54230       -1.48843
C         -8.56984       -0.40810        0.25874
C         -4.98135       -0.87580       -0.55601
C         -3.69868       -0.52927       -0.06979
C         -2.52872       -0.93503       -0.71755
C         -1.26333       -0.59056       -0.23334
C         -0.07379       -0.99695       -0.88224
C          1.17259       -0.65254       -0.39745
C          2.38700       -1.06159       -1.05115
C          3.60045       -0.71018       -0.55493
C          1.27301        0.14525        0.80602
C          2.58271        0.49078        1.29053
C          3.70006        0.08073        0.63810
C          0.12131        0.55020        1.45163
C         -1.16325        0.20634        0.96886
H         -2.25819        1.21174        2.52075
H         -4.71175        1.27382        2.68670
H         -7.18223        1.33657        2.85544
H         -9.37642        0.69358        1.94924
H         -9.53647       -0.69205       -0.14138
H         -5.06189       -1.47386       -1.45807
H         -2.60522       -1.53445       -1.62193
H         -0.14985       -1.59652       -1.78678
H          2.30911       -1.66061       -1.95471
H          4.50910       -1.02579       -1.05862
H          2.65609        1.08999        2.19435
H          4.68235        0.34898        1.01519
H          0.19707        1.14993        2.35609
