34
syn_C_S_2-F_3-CN.log	Energy: -852593.5411548
C         -2.42164        1.35532        0.21823
C         -3.61673        0.66524        0.39036
C         -4.87181        1.34759        0.44073
C         -6.01456        0.62728        0.61134
S         -7.66229        1.24906        0.70332
C         -5.99524       -0.80497        0.74281
C         -7.34498       -1.32448        0.91408
C         -7.62686       -2.71419        1.06919
N         -7.82058       -3.85092        1.19277
C         -8.29253       -0.35603        0.91029
C         -4.81136       -1.48479        0.69839
C         -3.58664       -0.77510        0.52133
C         -2.36353       -1.43687        0.47197
C         -1.15518       -0.74484        0.29853
C          0.08824       -1.41039        0.24794
C          1.27504       -0.71988        0.07700
C          2.54409       -1.38992        0.02473
C          3.67239       -0.66287       -0.14405
F          4.86719       -1.26988       -0.19538
C          1.24290        0.71972       -0.05341
C          2.48457        1.42245       -0.23020
C          3.66712        0.75846       -0.27512
C          0.03023        1.38352       -0.00564
C         -1.18642        0.69087        0.16828
H         -2.44188        2.43830        0.11962
H         -4.89049        2.42899        0.34199
H         -9.35866       -0.50423        1.02131
H         -4.79352       -2.56696        0.79739
H         -2.34256       -2.51962        0.57053
H          0.10833       -2.49309        0.34645
H          2.59786       -2.46920        0.11975
H          2.45903        2.50408       -0.32803
H          4.61251        1.27278       -0.40779
H          0.00919        2.46658       -0.10405
