41
syn_C_O_diCN_tetFbenz.log	Energy: -990906.7419059
C         -3.30398        0.92648        1.06370
C         -2.01291        0.54324        0.72638
C         -0.87418        1.08845        1.40843
C          0.34918        0.66335        1.01974
O          1.54381        1.07684        1.55930
C          0.56307       -0.29425       -0.02829
C          2.00520       -0.44543       -0.09888
C          2.86994       -1.19902       -0.87712
F          2.40337       -2.01879       -1.81831
C          4.23804       -1.09280       -0.66749
F          5.09193       -1.80359       -1.39947
C          2.51955        0.40763        0.88243
C          3.87923        0.52962        1.10928
F          4.37270        1.33900        2.04088
C          4.73273       -0.23483        0.31820
F          6.04519       -0.15024        0.50042
C         -0.49377       -0.83149       -0.69569
C         -1.81983       -0.42590       -0.33542
C         -2.92853       -0.94752       -0.98894
C         -4.23638       -0.56152       -0.64954
C         -5.36008       -1.09168       -1.31338
C         -6.64415       -0.70423       -0.97075
C         -7.81152       -1.23313       -1.63582
C         -7.63248       -2.19180       -2.68626
N         -7.44438       -2.96421       -3.52975
C         -9.07350       -0.82584       -1.26965
C        -10.23531       -1.34944       -1.92819
N        -11.19498       -1.75146       -2.43833
C         -6.84149        0.25951        0.08412
C         -8.17883        0.64920        0.42543
C         -9.25505        0.13289       -0.21950
C         -5.74177        0.78460        0.74067
C         -4.42849        0.40085        0.40444
H         -3.45201        1.65282        1.85898
H         -1.00053        1.81378        2.20436
H         -0.34926       -1.55623       -1.48992
H         -2.78398       -1.67402       -1.78472
H         -5.20772       -1.81745       -2.10762
H         -8.31850        1.37552        1.22077
H        -10.26403        0.43032        0.04195
H         -5.89252        1.51099        1.53548
