46
syn_S_O_benz_p-OMebenz.log	Energy: -995710.5319047
C         -2.94047       -2.03226        0.84922
C         -3.96010       -1.12761        0.54632
C         -5.33792       -1.48155        0.69522
C         -6.26831       -0.54583        0.37991
O         -7.62392       -0.71543        0.46352
C         -5.93984        0.76707       -0.09067
C         -7.22260        1.42190       -0.30059
C         -7.61486        2.67754       -0.73888
C         -8.98116        2.96157       -0.81592
O         -9.29174        4.21187       -1.25400
C        -10.65190        4.56280       -1.35455
C         -8.18672        0.47036        0.05325
C         -9.53892        0.73042       -0.01533
C         -9.93169        1.99574       -0.45697
C         -4.63380        1.12930       -0.24120
C         -3.60500        0.18964        0.07402
C         -2.25501        0.51839       -0.06508
C         -1.23737       -0.38822        0.23878
C          0.13885       -0.04704        0.09523
C          1.11699       -0.95188        0.39938
C          2.56669       -0.79696        0.32087
C          3.30147        0.31807       -0.08565
C          4.68866        0.26494       -0.08927
C          3.24818       -1.95724        0.72046
C          4.63849       -2.01841        0.71962
C          5.35240       -0.89772        0.31147
C          0.74897       -2.26047        0.86851
S          2.16193       -3.26350        1.20045
C         -0.55378       -2.63063        1.02099
C         -1.59087       -1.70081        0.70919
H         -3.20572       -3.02515        1.20512
H         -5.61996       -2.46732        1.04914
H         -6.89846        3.44129       -1.02202
H        -10.67091        5.59058       -1.71907
H        -11.15490        4.51718       -0.37959
H        -11.18470        3.91839       -2.06625
H        -10.27134       -0.01879        0.26300
H        -10.99072        2.21658       -0.51667
H         -4.35984        2.11904       -0.59624
H         -1.98858        1.51133       -0.42102
H          0.39551        0.94758       -0.26096
H          2.78847        1.22334       -0.39770
H          5.26092        1.13150       -0.40513
H          5.15567       -2.92065        1.03054
H          6.43762       -0.92928        0.30510
H         -0.82248       -3.62141        1.37614
