50
syn_C_NPh_diCF3_3-F.log	Energy: -1147407.9786310
C         -2.42195        1.30693        0.66410
C         -3.63849        0.62797        0.63160
C         -4.87490        1.31892        0.79881
C         -6.03784        0.60217        0.74998
N         -7.35909        1.00700        0.89493
C         -7.82352        2.32144        1.12674
C         -7.36088        3.37893        0.34155
C         -7.82625        4.66783        0.57709
C         -8.76890        4.90614        1.57374
C         -9.24015        3.84610        2.34332
C         -8.76296        2.55737        2.13141
C         -6.03799       -0.82968        0.56661
C         -7.42004       -1.21833        0.62680
F         -7.85524       -2.47126        0.48687
C         -8.18054       -0.12074        0.82703
C         -4.86916       -1.51793        0.40261
C         -3.63375       -0.80823        0.42295
C         -2.41788       -1.46702        0.25688
C         -1.19466       -0.78233        0.28762
C          0.03125       -1.46005        0.11851
C          1.25098       -0.79784        0.14708
C          2.53634       -1.46365       -0.02441
C          2.47397       -2.96827       -0.23358
F          1.75465       -3.26134       -1.33496
F          3.64948       -3.57497       -0.37697
F          1.86308       -3.56273        0.81046
C          3.69888       -0.73521        0.00902
C          5.09822       -1.31664       -0.16623
F          5.40698       -2.19856        0.79343
F          5.25823       -1.90526       -1.35877
F          6.03317       -0.34933       -0.09929
C          1.23520        0.63231        0.35748
C          2.47948        1.33356        0.38735
C          3.65366        0.68369        0.22016
C          0.04000        1.30823        0.52533
C         -1.19988        0.64140        0.49781
H         -2.41892        2.38298        0.82211
H         -4.86945        2.39027        0.96989
H         -6.65609        3.18336       -0.46009
H         -7.46214        5.48685       -0.03559
H         -9.13581        5.91256        1.74838
H         -9.97238        4.02298        3.12512
H         -9.10278        1.73368        2.75197
H         -9.25363       -0.02547        0.89675
H         -4.86991       -2.59514        0.26683
H         -2.41622       -2.54324        0.10030
H         -0.02013       -2.52903       -0.03601
H          2.46768        2.40808        0.54681
H          4.58408        1.23332        0.24430
H          0.05882        2.38418        0.68221
