45
syn_C_S_p-CF3benz_2-CF3.log	Energy: -1251744.7921975
C          1.16994       -1.52416        1.69401
C          0.21236       -0.95823        0.85164
C         -1.17759       -0.99718        1.17080
C         -2.07493       -0.42971        0.31493
S         -3.82161       -0.36341        0.50938
C         -1.66146        0.21089       -0.90610
C         -2.79476        0.73239       -1.63656
C         -3.96551        0.50169       -1.01383
C         -5.31621        0.91078       -1.51062
F         -6.11253       -0.15214       -1.70508
F         -5.94056        1.71464       -0.63563
F         -5.22020        1.56830       -2.67434
C         -0.33169        0.25949       -1.23195
C          0.64177       -0.31957       -0.37000
C          2.00339       -0.28510       -0.67750
C          2.96117       -0.85283        0.16720
C          4.34607       -0.82067       -0.14152
C          5.29596       -1.37651        0.68373
C          6.73398       -1.35306        0.37974
C          7.24724       -0.75789       -0.78430
C          8.60351       -0.75044       -1.04367
C          9.14777       -0.11836       -2.29456
F          8.18928        0.44849       -3.04499
F         10.04993        0.83724       -2.00703
F          9.77737       -1.02295       -3.06611
C          7.64257       -1.94703        1.28272
C          9.02021       -1.92892        0.99997
C          9.50414       -1.33995       -0.14703
C          4.85872       -2.01325        1.90646
C          5.84292       -2.60231        2.78716
C          7.15601       -2.57154        2.49428
C          3.52033       -2.05570        2.22444
C          2.53261       -1.48766        1.38318
H          0.84929       -2.00563        2.61496
H         -1.49584       -1.47885        2.09070
H         -2.71349        1.25272       -2.58277
H         -0.00692        0.74008       -2.15100
H          2.32588        0.19604       -1.59816
H          4.63207       -0.33330       -1.06810
H          6.58427       -0.29139       -1.50182
H          9.70674       -2.38963        1.70480
H         10.56857       -1.32943       -0.35756
H          5.49084       -3.07466        3.70022
H          7.88340       -3.01838        3.16633
H          3.20667       -2.53821        3.14737
