50
syn_S_NPh_3-F_p-CF3benz.log	Energy: -1233658.0840931
C         -3.49332        1.28219       -0.17390
C         -2.18410        0.80164       -0.12359
C         -1.06782        1.68923       -0.05580
C          0.18613        1.15539       -0.00524
N          1.42342        1.79892        0.05170
C          1.61724        3.20253        0.09254
C          1.04305        3.95312        1.11844
C          1.22721        5.33117        1.15006
C          1.99829        5.95857        0.17478
C          2.57755        5.20436       -0.84220
C          2.37995        3.82850       -0.89314
C          0.41856       -0.26555       -0.03378
C          1.86114       -0.44488        0.00861
C          2.67644       -1.56822        0.01949
C          4.05519       -1.39405        0.08745
C          4.96873       -2.58399        0.03977
F          4.35004       -3.71212        0.42976
F          5.43789       -2.80631       -1.20357
F          6.04439       -2.42075        0.83169
C          2.43189        0.84226        0.06025
C          3.81101        1.02343        0.13895
C          4.61106       -0.11003        0.14901
C         -0.63221       -1.13207       -0.09872
C         -1.96638       -0.62596       -0.14194
C         -3.06619       -1.48101       -0.20664
C         -4.37803       -0.99893       -0.25591
C         -5.49449       -1.87662       -0.32216
C         -6.76167       -1.36100       -0.36956
C         -8.02742       -2.05290       -0.43938
F         -8.06742       -3.38761       -0.46602
C         -9.10969       -1.25912       -0.47332
C         -6.97475        0.05686       -0.35303
S         -8.69268        0.44493       -0.42290
C         -5.92861        0.93160       -0.29017
C         -4.59675        0.42589       -0.23958
H         -3.66092        2.35681       -0.16202
H         -1.23290        2.76195       -0.05057
H          0.46152        3.45051        1.88500
H          0.77701        5.91410        1.94761
H          2.14698        7.03334        0.20706
H          3.17485        5.68910       -1.60823
H          2.80661        3.23413       -1.69527
H          2.24936       -2.56474       -0.01624
H          4.24703        2.01443        0.19982
H          5.68838       -0.00021        0.21502
H         -0.47252       -2.20686       -0.12308
H         -2.89935       -2.55585       -0.22020
H         -5.33658       -2.95107       -0.33501
H        -10.14276       -1.57155       -0.52570
H         -6.08877        2.00594       -0.27799
