46
syn_C_S_3-CF3_p-OMebenz.log	Energy: -1112149.4963910
C         -3.44375        1.23493        0.97799
C         -2.11618        0.86251        0.81563
C         -1.04922        1.58738        1.43735
C          0.23626        1.18571        1.24968
S          1.67467        1.94752        1.92958
C          0.56384        0.04010        0.43539
C          2.00626       -0.18934        0.38703
C          2.69166       -1.18956       -0.29069
C          4.08358       -1.24753       -0.21742
O          4.66457       -2.25929       -0.91256
C          6.06882       -2.37275       -0.87351
C          2.71932        0.75701        1.14176
C          4.10240        0.70340        1.21740
C          4.78735       -0.30080        0.53650
C         -0.43322       -0.66717       -0.16746
C         -1.80164       -0.28698       -0.00243
C         -2.83178       -0.99438       -0.60814
C         -4.17763       -0.62233       -0.44762
C         -5.22262       -1.34102       -1.06317
C         -6.55017       -0.97484       -0.90618
C         -7.65701       -1.67965       -1.51742
C         -7.39345       -2.88440       -2.38080
F         -6.75804       -3.85844       -1.70029
F         -8.52257       -3.42102       -2.86856
F         -6.61421       -2.58217       -3.43769
C         -8.93928       -1.26947       -1.32424
C         -6.86213        0.17492       -0.08781
C         -8.23380        0.56214        0.08115
C         -9.23648       -0.13196       -0.51341
C         -5.84108        0.88591        0.52046
C         -4.48993        0.52201        0.36663
H         -3.68393        2.09936        1.59278
H         -1.28860        2.45068        2.05150
H          2.17097       -1.93575       -0.88206
H          6.31706       -3.24013       -1.48610
H          6.43219       -2.53741        0.14919
H          6.55747       -1.48353       -1.29257
H          4.65786        1.43231        1.79902
H          5.86838       -0.33303        0.60235
H         -0.20429       -1.53249       -0.78412
H         -2.59434       -1.85915       -1.22347
H         -4.95617       -2.19836       -1.67002
H         -9.75316       -1.81147       -1.79130
H         -8.45055        1.42893        0.69977
H        -10.27124        0.16649       -0.38138
H         -6.08779        1.74940        1.13407
