52
syn_S_NPh_3-CN_m-OMebenz.log	Energy: -1089669.3626858
C         -3.43279        1.43554       -0.22456
C         -2.13009        0.93650       -0.20446
C         -1.00291        1.80328       -0.07362
C          0.24464        1.25259       -0.05640
N          1.48748        1.87534        0.04695
C          1.69807        3.26867        0.18212
C          1.11975        3.96003        1.24716
C          1.32086        5.33045        1.37175
C          2.11400        6.01019        0.45079
C          2.69784        5.31573       -0.60549
C          2.48299        3.94908       -0.74948
C          0.46301       -0.16806       -0.18270
C          1.90130       -0.36461       -0.14806
C          2.72294       -1.49027       -0.21079
C          4.09493       -1.33802       -0.13023
C          2.48692        0.90307       -0.00792
C          3.86539        1.08404        0.08675
C          4.66215       -0.05904        0.02152
O          6.01509       -0.03697        0.09816
C          6.65283        1.21036        0.25509
C         -0.59963       -1.01321       -0.30867
C         -1.92844       -0.48927       -0.31965
C         -3.03782       -1.32403       -0.44403
C         -4.34436       -0.82362       -0.46253
C         -5.46961       -1.68261       -0.58947
C         -6.73417       -1.15691       -0.60471
C         -8.01253       -1.84267       -0.72406
C         -8.12563       -3.25908       -0.85011
N         -8.18297       -4.41303       -0.95121
C         -9.07370       -0.99938       -0.70289
C         -6.92490        0.25987       -0.49305
S         -8.63773        0.67324       -0.53979
C         -5.87206        1.11989       -0.36933
C         -4.54613        0.59850       -0.35030
H         -3.58754        2.50890       -0.14001
H         -1.15569        2.87510        0.00424
H          0.52112        3.41642        1.97140
H          0.86640        5.86590        2.19971
H          2.27569        7.07852        0.55542
H          3.31132        5.84158       -1.33073
H          2.91257        3.40245       -1.58335
H          2.29174       -2.48112       -0.31952
H          4.76271       -2.19078       -0.17704
H          4.28417        2.07419        0.21434
H          7.72199        0.99884        0.29149
H          6.34875        1.70317        1.18742
H          6.44418        1.87786       -0.59102
H         -0.45439       -2.08578       -0.40668
H         -2.88458       -2.39744       -0.53032
H         -5.31930       -2.75586       -0.67412
H        -10.11622       -1.27932       -0.77657
H         -6.02212        2.19236       -0.28521
