52
syn_C_C_m-CF3benz_m-CNbenz.log	Energy: -993261.0113933
C         -2.68429       -1.22363       -1.51696
C         -3.57182       -0.45490       -0.76080
C         -4.93201       -0.28599       -1.12202
C         -5.79640        0.47419       -0.36941
C         -7.17910        0.62599       -0.76671
C         -8.04014        1.36519       -0.04502
C         -5.32859        1.13198        0.83179
C         -6.28120        1.93648        1.61001
C         -5.91805        2.61143        2.78888
C         -6.82817        3.36172        3.50417
C         -7.61928        2.04283        1.16394
C         -8.54004        2.80603        1.89390
C         -8.15500        3.46234        3.05442
C         -9.10921        4.24128        3.79282
N         -9.87766        4.87055        4.39057
C         -4.01080        0.97599        1.19393
C         -3.10103        0.19617        0.43244
C         -1.76460        0.04506        0.81011
C         -0.87552       -0.72364        0.05471
C          0.48413       -0.88231        0.43102
C          1.36835       -1.63593       -0.30528
C          2.77859       -1.80903        0.07226
C          3.33602       -1.21535        1.21893
C          4.66334       -1.39309        1.54964
C          3.61794       -2.60040       -0.74242
C          4.96728       -2.77497       -0.39547
C          5.48713       -2.17995        0.73531
C          6.92202       -2.38445        1.13383
F          7.02005       -3.15038        2.23563
F          7.64083       -2.97969        0.16930
F          7.52193       -1.21551        1.42155
C          0.88741       -2.28688       -1.50493
C          1.80252       -3.08291       -2.29293
C          3.09057       -3.23091       -1.93425
C         -0.42657       -2.14689       -1.88769
C         -1.34790       -1.37363       -1.13851
H         -3.04070       -1.71546       -2.41911
H         -5.29756       -0.77440       -2.02243
H         -7.50669        0.12239       -1.67199
H         -9.07587        1.47056       -0.35521
H         -4.90186        2.55275        3.16106
H         -6.52683        3.87447        4.41109
H         -9.56565        2.88337        1.54576
H         -3.61938        1.45191        2.08724
H         -1.40800        0.53701        1.71245
H          0.80476       -0.37792        1.33686
H          2.72441       -0.59927        1.86802
H          5.07095       -0.92102        2.43758
H          5.60238       -3.38384       -1.03073
H          1.41882       -3.56178       -3.18958
H          3.76717       -3.83169       -2.53562
H         -0.77403       -2.64203       -2.79159
