45
syn_O_NPh_3-OMe_2-F.log	Energy: -794988.3695159
C          1.18297       -1.77107       -0.00180
C          0.03270       -0.97777       -0.00165
C         -1.26859       -1.55846       -0.04194
C         -2.34985       -0.72679       -0.03227
N         -3.71221       -1.03157       -0.08149
C         -4.29916       -2.32189       -0.05581
C         -3.91738       -3.23345        0.92867
C         -4.47864       -4.50543        0.94377
C         -5.43459       -4.86224       -0.00353
C         -5.82227       -3.94316       -0.97475
C         -5.24959       -2.67671       -1.01213
C         -2.23191        0.71109       -0.00317
C         -3.57320        1.24903       -0.03415
C         -4.38931        0.17463       -0.07919
F         -5.70916        0.13801       -0.10869
C         -0.98860        1.28286        0.03295
C          0.17371        0.45847        0.04016
C          1.45823        1.00679        0.08090
C          2.60959        0.21541        0.08061
C          3.91149        0.79764        0.12135
C          5.00711       -0.02079        0.11217
C          6.44750        0.16801        0.15009
O          7.11760        1.34633        0.22132
C          7.04776        2.11202       -0.97281
C          6.99749       -1.06306        0.14222
C          4.84007       -1.43820        0.08256
O          6.05776       -2.06069        0.10992
C          3.62938       -2.05261        0.04514
C          2.46650       -1.22261        0.03845
H          1.07509       -2.85313       -0.03364
H         -1.37699       -2.63766       -0.08521
H         -3.19002       -2.93788        1.67799
H         -4.17653       -5.21451        1.70831
H         -5.87668       -5.85344        0.01551
H         -6.56592       -4.21559       -1.71722
H         -5.53226       -1.96359       -1.77890
H         -3.87718        2.28386       -0.02183
H         -0.87236        2.36306        0.05156
H          1.56578        2.08905        0.11311
H          4.01247        1.87822        0.16999
H          7.58227        3.04254       -0.77543
H          6.01024        2.33768       -1.24714
H          7.52663        1.58001       -1.80429
H          8.02700       -1.38506        0.17252
H          3.53929       -3.13363        0.02602
