53
syn_C_NPh_3-CF3_tetFbenz.log	Energy: -1219113.5830054
C         -3.36269        1.46559       -0.08885
C         -2.06510        0.96791       -0.11613
C         -0.93558        1.81781        0.10618
C          0.30934        1.26764        0.07080
N          1.55334        1.87942        0.24676
C          1.73728        3.27466        0.45009
C          1.20145        3.87538        1.58756
C          1.34955        5.24556        1.77627
C          2.04418        6.00896        0.84205
C          2.58382        5.40121       -0.28892
C          2.42232        4.03604       -0.49417
C          0.52205       -0.13198       -0.20060
C          1.95955       -0.32972       -0.18748
C          2.75484       -1.44987       -0.36941
F          2.20518       -2.63900       -0.62684
C          4.13432       -1.33934       -0.28236
F          4.91784       -2.40344       -0.45813
C          2.54764        0.92194        0.08582
C          3.92989        1.03517        0.19055
F          4.53463        2.19363        0.47109
C          4.70947       -0.09927       -0.00337
F          6.03331       -0.00416        0.08549
C         -0.53270       -0.96670       -0.41558
C         -1.86275       -0.44321       -0.37605
C         -2.96473       -1.26296       -0.58831
C         -4.27654       -0.76219       -0.55985
C         -5.39265       -1.59667       -0.77611
C         -6.68701       -1.10287       -0.74953
C         -7.86387       -1.91784       -0.96591
C         -7.71521       -3.39106       -1.23796
F         -7.09622       -4.02731       -0.22418
F         -8.89744       -3.99992       -1.41740
F         -6.98206       -3.62437       -2.34420
C         -9.10892       -1.37223       -0.92731
C         -6.88849        0.30552       -0.49244
C         -8.22588        0.82659       -0.46324
C         -9.29689        0.02078       -0.67237
C         -5.79782        1.13112       -0.27890
C         -4.47819        0.63928       -0.30394
H         -3.52156        2.52410        0.10406
H         -1.08708        2.87568        0.29448
H          0.67813        3.26447        2.31657
H          0.93174        5.71381        2.66203
H          2.16626        7.07664        0.99533
H          3.12497        5.99318       -1.02031
H          2.82576        3.55507       -1.37941
H         -0.37849       -2.02069       -0.62168
H         -2.80905       -2.32158       -0.78303
H         -5.20804       -2.64747       -0.96649
H         -9.97678       -1.99982       -1.09212
H         -8.35967        1.88741       -0.26876
H        -10.30491        0.42161       -0.64892
H         -5.96215        2.18900       -0.08670
