41
syn_S_NPh_3-F_diCl.log	Energy: -1502603.5732716
C          0.78129        1.13474        0.52866
C         -0.40797        0.39943        0.48562
C         -1.67565        1.04573        0.44883
C         -2.79806        0.26765        0.40319
N         -4.13748        0.64377        0.36990
C         -4.60825        1.98555        0.34836
C         -4.29263        2.79992       -0.73767
C         -4.72414        4.12191       -0.75192
C         -5.48120        4.62143        0.30474
C         -5.79820        3.80044        1.38385
C         -5.35331        2.48323        1.41500
C         -2.74064       -1.16847        0.40433
C         -4.10712       -1.61983        0.36741
Cl        -4.62278       -3.25921        0.33919
C         -4.90074       -0.51702        0.34706
Cl        -6.60640       -0.45076        0.26361
C         -1.53310       -1.81168        0.44075
C         -0.33589       -1.04466        0.47924
C          0.91997       -1.65905        0.51455
C          2.10447       -0.92284        0.55656
C          3.37826       -1.55778        0.59216
C          4.51458       -0.79809        0.63313
C          5.89496       -1.22189        0.67341
F          6.20271       -2.52154        0.67392
C          6.79597       -0.22754        0.70854
C          4.43833        0.63533        0.64082
S          6.04538        1.35945        0.69619
C          3.23807        1.28193        0.60768
C          2.03257        0.51873        0.56430
H          0.72759        2.22112        0.53480
H         -1.73497        2.12953        0.45866
H         -3.71521        2.39034       -1.56056
H         -4.47764        4.75854       -1.59584
H         -5.82374        5.65140        0.28759
H         -6.38486        4.18835        2.21058
H         -5.57695        1.83859        2.25879
H         -1.48030       -2.89649        0.44331
H          0.97412       -2.74535        0.50953
H          3.44047       -2.64203        0.58661
H          7.87147       -0.32681        0.74160
H          3.17819        2.36657        0.61362
