53
syn_S_NPh_diCN_p-OMebenz.log	Energy: -1147523.0550636
C         -3.39197        1.57807       -0.33286
C         -2.10038        1.05196       -0.26965
C         -0.96223        1.89431       -0.09891
C          0.27558        1.31909       -0.04092
N          1.52228        1.91221        0.10425
C          1.76311        3.29962        0.24532
C          1.15140        4.01212        1.27745
C          1.38287        5.37736        1.40626
C          2.23951        6.03056        0.52394
C          2.85749        5.31447       -0.49794
C          2.61350        3.95341       -0.64710
C          0.46285       -0.10697       -0.16513
C          1.89637       -0.34352       -0.08700
C          2.66211       -1.49822       -0.13059
C          4.04892       -1.39381       -0.00750
O          4.73250       -2.56953       -0.06421
C          6.13398       -2.52900        0.06568
C          2.50719        0.91365        0.07531
C          3.88174        1.02510        0.21057
C          4.64872       -0.13961        0.16511
C         -0.60959       -0.93054       -0.32825
C         -1.92626       -0.37879       -0.38163
C         -3.04554       -1.19079       -0.54486
C         -4.34072       -0.66225       -0.60616
C         -5.47489       -1.49731       -0.77223
C         -6.72877       -0.94346       -0.82907
C         -8.00388       -1.61006       -0.99206
C         -8.12395       -3.02448       -1.12264
N         -8.17055       -4.17817       -1.22501
C         -9.05855       -0.74418       -1.00618
C        -10.42803       -1.09468       -1.15007
N        -11.54966       -1.36448       -1.26621
C         -6.89598        0.47647       -0.72162
S         -8.59174        0.93360       -0.82452
C         -5.83006        1.31419       -0.56072
C         -4.51693        0.76480       -0.49789
H         -3.52705        2.65405       -0.25131
H         -1.09606        2.96860       -0.02414
H          0.50452        3.48912        1.97492
H          0.90260        5.92899        2.20863
H          2.42506        7.09457        0.63248
H          3.52212        5.81912       -1.19242
H          3.07098        3.39157       -1.45561
H          2.21573       -2.47955       -0.25369
H          6.47283       -3.56325       -0.00536
H          6.43894       -2.11597        1.03637
H          6.59834       -1.94202       -0.73788
H          4.35930        1.98833        0.35478
H          5.72384       -0.05301        0.26972
H         -0.48152       -2.00537       -0.42474
H         -2.91176       -2.26688       -0.62842
H         -5.34543       -2.57340       -0.85384
H         -5.96021        2.38925       -0.47968
