43
syn_C_O_3-F_m-OMebenz.log	Energy: -760289.0859888
C         -3.44886        1.06719        0.49138
C         -2.14651        0.63278        0.28798
C         -1.02222        1.45901        0.62549
C          0.21474        0.96244        0.39671
O          1.39382        1.61484        0.65946
C          0.46461       -0.33829       -0.16192
C          1.91273       -0.44108       -0.22497
C          2.82701       -1.40667       -0.64916
C          4.18121       -1.13996       -0.55299
C          2.39876        0.76381        0.28296
C          3.74590        1.06867        0.39548
C          4.64082        0.08619       -0.03549
O          5.98679        0.22345        0.00584
C          6.51824        1.42759        0.51355
C         -0.58186       -1.14397       -0.49189
C         -1.92233       -0.68361       -0.27727
C         -3.01664       -1.47515       -0.60054
C         -4.33725       -1.03899       -0.39625
C         -5.44740       -1.84248       -0.72443
C         -6.73838       -1.39247       -0.51447
C         -7.88975       -2.18297       -0.83654
F         -7.66248       -3.39958       -1.35970
C         -9.15854       -1.75631       -0.63671
C         -6.97364       -0.08462        0.04772
C         -8.32834        0.34786        0.25127
C         -9.37332       -0.45624       -0.07800
C         -5.88366        0.70698        0.37100
C         -4.56006        0.26854        0.16544
H         -3.61855        2.05427        0.91539
H         -1.17133        2.44629        1.04920
H          2.48544       -2.35602       -1.04993
H          4.92156       -1.86490       -0.87212
H          4.05975        2.02273        0.79846
H          7.60221        1.32465        0.45660
H          6.22335        1.58687        1.55851
H          6.20369        2.28984       -0.08798
H         -0.42404       -2.13177       -0.91580
H         -2.85023       -2.46283       -1.02473
H         -5.28395       -2.82833       -1.14795
H         -9.99168       -2.39812       -0.89964
H         -8.49874        1.33339        0.67491
H        -10.39345       -0.12055        0.07959
H         -6.05014        1.69450        0.79533
