40
syn_S_O_m-OMebenz_C.log	Energy: -899323.3929924
C         -3.66121        1.12731        0.00025
C         -4.68121        0.16992        0.00066
C         -6.05621        0.55171        0.00040
C         -6.98111       -0.44368        0.00084
O         -8.33848       -0.28046        0.00069
C         -6.65933       -1.83579        0.00152
C         -7.94087       -2.51260        0.00178
C         -8.87088       -1.54008        0.00126
C         -5.34667       -2.22438        0.00178
C         -4.32492       -1.23009        0.00135
C         -2.96994       -1.58027        0.00159
C         -1.95630       -0.62302        0.00118
C         -0.57709       -0.98857        0.00143
C          0.39875       -0.03257        0.00101
C          1.84771       -0.19620        0.00117
C          2.59971       -1.37596        0.00178
C          3.97953       -1.32205        0.00183
C          2.52648        1.02725        0.00061
C          3.91804        1.10728        0.00064
C          4.64304       -0.08317        0.00126
O          5.99623       -0.15104        0.00137
C          6.72349        1.05722        0.00061
C          0.02550        1.35790        0.00032
S          1.43860        2.41689       -0.00013
C         -1.27657        1.75526        0.00006
C         -2.31323        0.77172        0.00049
H         -3.92960        2.18142       -0.00028
H         -6.34205        1.59814       -0.00012
H         -8.12384       -3.57691        0.00229
H         -9.95027       -1.57374        0.00122
H         -5.06773       -3.27433        0.00230
H         -2.70017       -2.63426        0.00211
H         -0.31781       -2.04442        0.00195
H          2.09982       -2.34035        0.00223
H          4.57977       -2.22515        0.00230
H          4.40851        2.07325        0.00021
H          7.77645        0.77392        0.00069
H          6.50936        1.65551        0.89548
H          6.50921        1.65447       -0.89491
H         -1.54761        2.80725       -0.00046
