40
syn_C_S_diCF3_3-CN.log	Energy: -1213213.4187598
C         -2.43771        1.35951        0.27323
C         -3.64088        0.67780        0.41639
C         -4.89085        1.37096        0.45199
C         -6.04242        0.65864        0.59348
S         -7.68474        1.29483        0.66228
C         -6.03913       -0.77572        0.70876
C         -7.39638       -1.28456        0.84890
C         -7.69288       -2.67340        0.98233
N         -7.89744       -3.80985        1.08866
C         -8.33394       -0.30672        0.83871
C         -4.86133       -1.46602        0.67831
C         -3.62736       -0.76491        0.53168
C         -2.41086       -1.43826        0.49704
C         -1.19388       -0.75320        0.35274
C          0.03543       -1.44345        0.31872
C          1.24851       -0.78246        0.17609
C          2.53768       -1.46175        0.13609
C          2.48723       -2.97572        0.27296
F          1.75263       -3.51226       -0.72105
F          3.66573       -3.59098        0.24910
F          1.89844       -3.32091        1.43486
C          3.69209       -0.73594       -0.01668
C          5.09574       -1.33230       -0.08194
F          5.42797       -1.97168        1.04635
F          5.24032       -2.17322       -1.11363
F          6.01954       -0.36770       -0.25232
C          1.22115        0.65716        0.05965
C          2.45727        1.35680       -0.09183
C          3.63509        0.69335       -0.12990
C          0.02102        1.34590        0.09272
C         -1.20973        0.68038        0.23794
H         -2.44492        2.44338        0.18621
H         -4.89836        2.45341        0.36539
H         -9.40345       -0.44507        0.92804
H         -4.85449       -2.54929        0.76505
H         -2.40044       -2.52198        0.58377
H         -0.00692       -2.51999        0.40883
H          2.43634        2.43936       -0.17823
H          4.55983        1.24050       -0.24724
H          0.03044        2.42945        0.00313
