40
syn_S_O_3-CN_p-CF3benz.log	Energy: -1096785.3094594
C         -3.33987        1.29616        0.47906
C         -2.04933        0.78289        0.36115
C         -0.90847        1.53427        0.78940
C          0.31059        0.96258        0.64000
O          1.50636        1.53618        0.99475
C          0.51504       -0.34085        0.08152
C          1.95609       -0.53753        0.11548
C          2.81488       -1.56313       -0.26249
C          4.17994       -1.38486       -0.06364
C          5.15515       -2.44410       -0.49689
F          4.55375       -3.62318       -0.72469
F          5.79032       -2.09764       -1.63142
F          6.10698       -2.64907        0.43090
C          2.47972        0.63204        0.67726
C          3.83552        0.82828        0.88254
C          4.68220       -0.20454        0.50090
C         -0.55341       -1.07760       -0.33448
C         -1.86981       -0.53444       -0.20567
C         -2.99059       -1.25361       -0.61813
C         -4.28594       -0.73851       -0.49990
C         -5.42244       -1.47987       -0.92353
C         -6.67548       -0.94363       -0.79214
C         -7.96199       -1.51935       -1.15518
C         -8.09460       -2.81403       -1.73910
N         -8.16524       -3.87042       -2.21245
C         -9.00676       -0.70035       -0.88105
C         -6.84342        0.36413       -0.22803
S         -8.54517        0.81517       -0.17164
C         -5.77886        1.10913        0.19098
C         -4.46467        0.57419        0.06520
H         -3.47683        2.28709        0.90543
H         -1.02594        2.52415        1.21672
H          2.43467       -2.48067       -0.69720
H          4.21118        1.74430        1.32317
H          5.75209       -0.09927        0.64679
H         -0.42662       -2.06838       -0.76166
H         -2.85549       -2.24478       -1.04475
H         -5.28988       -2.47064       -1.35038
H        -10.05214       -0.91235       -1.06298
H         -5.91135        2.09909        0.61751
