43
syn_C_S_2-CN_p-CF3benz.log	Energy: -1098169.4093165
C         -3.42212        1.32091        0.77746
C         -2.11142        0.88394        0.63633
C         -1.00972        1.63339        1.15982
C          0.25655        1.16556        0.99774
S          1.73503        1.94195        1.56963
C          0.53040       -0.07163        0.30941
C          1.96224       -0.35306        0.26823
C          2.61104       -1.44572       -0.30501
C          3.99350       -1.53162       -0.23403
C          4.72565       -2.68345       -0.86528
F          3.89119       -3.64434       -1.29279
F          5.45059       -2.28276       -1.92515
F          5.58604       -3.25079       -0.00164
C          2.71992        0.64099        0.90514
C          4.10865        0.55803        0.97794
C          4.73979       -0.53465        0.40447
C         -0.50096       -0.80450       -0.19873
C         -1.85127       -0.35814       -0.05556
C         -2.91683       -1.08901       -0.56469
C         -4.24522       -0.65221       -0.42480
C         -5.33113       -1.38864       -0.93824
C         -6.63644       -0.94757       -0.79363
C         -7.74256       -1.69284       -1.31327
C         -9.02157       -1.23927       -1.15906
C        -10.12037       -1.99865       -1.68572
N        -11.01360       -2.60561       -2.10768
C         -6.89843        0.29268       -0.10344
C         -8.26162        0.72677        0.03229
C         -9.28720       -0.00280       -0.47158
C         -5.83896        1.02351        0.40447
C         -4.50526        0.58665        0.26498
H         -3.61876        2.25528        1.29788
H         -1.20742        2.56626        1.67958
H          2.04307       -2.22531       -0.80070
H          4.68851        1.32930        1.47380
H          5.82043       -0.62017        0.45302
H         -0.31433       -1.73954       -0.72050
H         -2.72131       -2.02366       -1.08526
H         -5.13585       -2.32336       -1.45868
H         -7.55215       -2.62675       -1.83345
H         -8.45797        1.66034        0.55179
H        -10.31466        0.32812       -0.36702
H         -6.03444        1.95817        0.92490
