36
syn_O_O_3-Cl_benz.log	Energy: -913194.6447116
C         -3.42306        1.18604        0.31331
C         -2.11964        0.70313        0.20766
C         -0.99132        1.53123        0.50909
C          0.24252        0.98500        0.38084
O          1.42636        1.63072        0.62686
C          0.47311       -0.36637       -0.03735
C          1.92091       -0.51642       -0.03355
C          2.80524       -1.55018       -0.32894
C          4.17073       -1.31256       -0.20549
C          2.42338        0.72358        0.37590
C          3.77623        0.98360        0.50613
C          4.64610       -0.06274        0.20637
C         -0.58383       -1.17572       -0.33014
C         -1.91362       -0.66246       -0.21550
C         -3.02328       -1.45495       -0.50473
C         -4.33274       -0.97328       -0.39952
C         -5.45168       -1.80267       -0.70059
C         -6.70907       -1.28075       -0.58086
C         -8.05624       -1.76718       -0.78209
Cl        -8.49502       -3.35101       -1.29627
C         -8.89221       -0.75191       -0.49236
C         -6.88969        0.07059       -0.16175
O         -8.22359        0.37629       -0.11316
C         -5.86371        0.90908        0.13888
C         -4.53835        0.39247        0.02342
H         -3.57915        2.21412        0.63172
H         -1.12915        2.55868        0.82818
H          2.43709       -2.52037       -0.64861
H          4.87696       -2.10513       -0.43097
H          4.13310        1.95590        0.82614
H          5.71609        0.09827        0.29528
H         -0.43710       -2.20398       -0.64920
H         -2.86730       -2.48332       -0.82328
H         -5.29616       -2.82946       -1.01846
H         -9.96890       -0.68132       -0.50860
H         -6.03646        1.93223        0.45494
