57
syn_S_NPh_tetClbenz_p-OMebenz.log	Energy: -2281744.3714376
C         -3.58200       -2.17712        0.62620
C         -4.52311       -1.19824        0.29213
C         -5.92314       -1.44762        0.39215
C         -6.79263       -0.44884        0.05412
N         -8.18249       -0.44603        0.05118
C         -9.00895       -1.52791        0.43525
C         -8.87024       -2.09649        1.70214
C         -9.67749       -3.16686        2.07174
C        -10.63841       -3.65853        1.19202
C        -10.78244       -3.08178       -0.06712
C         -9.96363       -2.02577       -0.45259
C         -6.33526        0.83534       -0.41498
C         -7.52682        1.61885       -0.70303
C         -7.71252        2.91378       -1.16176
C         -9.01354        3.39382       -1.32231
O         -9.11455        4.67248       -1.78041
C        -10.40213        5.21495       -1.95177
C         -8.63287        0.80014       -0.40733
C         -9.92740        1.27341       -0.55214
C        -10.10928        2.57710       -1.01501
C         -5.00092        1.09492       -0.51761
C         -4.05323        0.08858       -0.16370
C         -2.67998        0.31944       -0.25433
C         -1.74331       -0.66108        0.08192
C         -0.34526       -0.40925       -0.01678
C          0.57224       -1.37455        0.31236
C          2.04142       -1.35240        0.29217
C          2.94278       -0.34096       -0.06588
Cl         2.37488        1.21072       -0.59671
C          4.32505       -0.55704       -0.00369
Cl         5.42464        0.70207       -0.44912
C          2.57882       -2.58391        0.71438
C          3.94812       -2.81154        0.78043
Cl         4.51909       -4.35782        1.31064
C          4.83173       -1.79520        0.42001
Cl         6.53560       -2.06519        0.49667
C          0.08188       -2.65272        0.76108
S          1.37612       -3.78263        1.14189
C         -1.24554       -2.93636        0.87096
C         -2.20986       -1.94245        0.53275
H         -3.93044       -3.14900        0.96809
H         -6.27257       -2.41925        0.72619
H         -8.13491       -1.69078        2.38995
H         -9.56376       -3.60847        3.05707
H        -11.27278       -4.48866        1.48668
H        -11.52568       -3.46419       -0.76008
H        -10.05123       -1.58642       -1.44149
H         -6.87697        3.56543       -1.39562
H        -10.25440        6.23170       -2.31805
H        -10.95637        5.25057       -1.00437
H        -10.98595        4.64811       -2.68929
H        -10.78555        0.65624       -0.30836
H        -11.12147        2.94698       -1.12925
H         -4.64363        2.05834       -0.87178
H         -2.32916        1.29017       -0.59783
H         -0.03313        0.56723       -0.35986
H         -1.58496       -3.91012        1.21235
