56
syn_S_NPh_p-CNbenz_diOMe.log	Energy: -1161502.4785782
C         -4.02527       -1.67766       -1.36594
C         -5.00467       -1.06488       -0.57513
C         -6.39020       -1.22193       -0.86272
C         -7.29972       -0.58997       -0.06113
N         -8.68932       -0.59163       -0.10452
C         -9.49973       -1.32252       -1.00517
C        -10.50460       -2.16270       -0.52308
C        -11.30689       -2.85873       -1.42047
C        -11.09915       -2.74047       -2.79238
C        -10.09072       -1.90703       -3.26852
C         -9.29921       -1.18695       -2.38024
C         -6.89884        0.19958        1.07454
C         -8.11326        0.66485        1.69842
O         -8.19998        1.44209        2.81142
C         -7.97476        2.81863        2.55601
C         -9.15516        0.17372        0.97599
O        -10.47005        0.32487        1.19635
C        -11.12630        1.21812        0.29772
C         -5.57216        0.35647        1.37346
C         -4.58953       -0.26295        0.55234
C         -3.22234       -0.12388        0.81528
C         -2.25084       -0.73460        0.02340
C         -0.85918       -0.58722        0.29696
C          0.07373       -1.19559       -0.49398
C          1.52906       -1.16780       -0.38323
C          2.31086       -0.50970        0.56063
C          3.70137       -0.60990        0.49093
C          4.51202        0.06866        1.46276
N          5.16624        0.61727        2.24706
C          2.15659       -1.92238       -1.39050
C          3.54389       -2.02581       -1.46423
C          4.31505       -1.36677       -0.51984
C         -0.35371       -1.99224       -1.61203
S          1.01570       -2.68171       -2.49208
C         -1.67027       -2.16266       -1.91278
C         -2.66474       -1.53545       -1.10015
H         -4.33737       -2.28351       -2.21383
H         -6.69787       -1.84275       -1.69804
H        -10.65256       -2.26031        0.54642
H        -12.09046       -3.50831       -1.04259
H        -11.72173       -3.29482       -3.48767
H         -9.92678       -1.80354       -4.33680
H         -8.53089       -0.51158       -2.74354
H         -8.01490        3.32677        3.52123
H         -8.75028        3.22819        1.89514
H         -6.99298        2.98569        2.09491
H        -12.15714        1.29209        0.64474
H        -11.11104        0.83235       -0.72749
H        -10.65136        2.20527        0.32819
H         -5.26340        0.93284        2.24112
H         -2.90951        0.47866        1.66536
H         -0.55659        0.01874        1.14748
H          1.85200        0.07908        1.34831
H          4.01782       -2.61078       -2.24541
H          5.39703       -1.43183       -0.55610
H         -1.98459       -2.76677       -2.75908
