37
syn_S_O_3-CN_diCF3.log	Energy: -1211831.5118663
C          0.14334        1.42949        0.46858
C         -0.93926        0.54760        0.43108
C         -2.28341        1.02320        0.48829
C         -3.26982        0.09214        0.44698
O         -4.61464        0.34846        0.49491
C         -3.04902       -1.31297        0.35103
C         -4.37988       -1.89371        0.33345
C         -4.71130       -3.35134        0.27268
F         -3.68810       -4.04062       -0.26234
F         -4.94108       -3.86228        1.48986
F         -5.79234       -3.59018       -0.48022
C         -5.23627       -0.85443        0.43920
C         -6.74020       -0.78073        0.45146
F         -7.14511        0.28199        1.15038
F         -7.22625       -0.66902       -0.78998
F         -7.26362       -1.87573        1.00764
C         -1.76944       -1.79512        0.29135
C         -0.68415       -0.87238        0.33338
C          0.63914       -1.31907        0.27853
C          1.71983       -0.43632        0.31605
C          3.06346       -0.90302        0.25956
C          4.09827       -0.00933        0.29888
C          5.53111       -0.26300        0.25486
C          6.08276       -1.57478        0.15740
N          6.49588       -2.65543        0.07796
C          6.27300        0.86947        0.31593
C          3.83312        1.39838        0.39708
S          5.33176        2.32394        0.43039
C          2.56166        1.88873        0.45347
C          1.46382        0.97937        0.41417
H         -0.04889        2.49714        0.54232
H         -2.49956        2.08316        0.56242
H         -1.56707       -2.85714        0.21478
H          0.83222       -2.38651        0.20430
H          3.25910       -1.96951        0.18539
H          7.35332        0.92880        0.29939
H          2.36626        2.95441        0.52755
