53
syn_C_NPh_diOMe_3-CN.log	Energy: -863829.8029343
C         -2.55868        1.23401        0.66663
C         -3.79637        0.59609        0.62526
C         -5.01254        1.32878        0.77371
C         -6.19074        0.64419        0.71652
N         -7.50785        1.09900        0.84425
C         -7.92101        2.44175        1.03949
C         -7.44632        3.44600        0.19589
C         -7.86130        4.75842        0.39150
C         -8.76064        5.06805        1.40875
C         -9.23970        4.05914        2.23952
C         -8.81381        2.74652        2.06570
C         -6.24780       -0.78171        0.53904
C         -7.65565       -1.13502        0.57557
C         -8.20542       -2.43397        0.43322
N         -8.63173       -3.50725        0.31539
C         -8.35506        0.02296        0.76278
C         -5.10002       -1.50725        0.39438
C         -3.84028       -0.83919        0.42718
C         -2.64466       -1.53962        0.28051
C         -1.39886       -0.89846        0.32063
C         -0.18737       -1.60868        0.17084
C          1.03380       -0.96291        0.21306
C          2.27269       -1.68592        0.06789
O          2.19343       -3.04175       -0.11536
C          2.65728       -3.80003        0.99610
C          3.46891       -1.02601        0.10066
O          4.67450       -1.66286       -0.02121
C          4.88875       -2.32168       -1.26368
C          1.08308        0.46677        0.41657
C          2.36725        1.10823        0.46987
C          3.50732        0.39006        0.31498
C         -0.09838        1.17037        0.56194
C         -1.35566        0.52915        0.52030
H         -2.52279        2.31086        0.81679
H         -4.97824        2.40140        0.93518
H         -6.77006        3.19182       -0.61390
H         -7.49081        5.53949       -0.26503
H         -9.08719        6.09297        1.55323
H         -9.93694        4.29420        3.03756
H         -9.15743        1.95969        2.73049
H         -9.42463        0.16898        0.82273
H         -5.13442       -2.58499        0.26210
H         -2.67810       -2.61630        0.13050
H         -0.21279       -2.68187        0.01112
H          3.72258       -3.62255        1.17763
H          2.49431       -4.84866        0.74084
H          2.08542       -3.54913        1.89755
H          5.91200       -2.70003       -1.23288
H          4.78593       -1.61503       -2.09611
H          4.18818       -3.14992       -1.40562
H          2.40752        2.18181        0.63074
H          4.48573        0.85853        0.34752
H         -0.06249        2.24702        0.71338
