44
syn_C_O_m-CNbenz_2-OMe.log	Energy: -755894.2908549
C          1.06196       -1.84734        0.99963
C          0.09004       -1.07222        0.37224
C         -1.30539       -1.33307        0.56319
C         -2.17951       -0.53003       -0.08489
O         -3.55022       -0.62590       -0.02450
C         -1.81212        0.55714       -0.94428
C         -3.05929        1.11898       -1.40485
C         -4.02704        0.37284       -0.82329
O         -5.34135        0.48453       -0.92721
C         -6.15075       -0.43859       -0.20151
C         -0.48509        0.82330       -1.14041
C          0.49958        0.01732       -0.48864
C          1.86276        0.25644       -0.66268
C          2.83928       -0.52297       -0.03179
C          4.22463       -0.27846       -0.20964
C          5.19219       -1.04007        0.40721
C          6.63078       -0.79890        0.23264
C          7.13394        0.23170       -0.58179
C          8.48873        0.44157       -0.73212
C          7.55670       -1.63046        0.90585
C          8.93237       -1.41294        0.74983
C          9.40146       -0.38842       -0.05985
C         10.81390       -0.17717       -0.21032
N         11.95370       -0.00464       -0.33337
C          4.77185       -2.12484        1.26460
C          5.77190       -2.93609        1.92206
C          7.08666       -2.70488        1.75470
C          3.43096       -2.37803        1.44975
C          2.42873       -1.60206        0.82092
H          0.75221       -2.66548        1.64609
H         -1.63562       -2.14395        1.20357
H         -3.21596        1.95339       -2.06954
H         -7.17823       -0.16178       -0.43388
H         -5.97335       -0.35249        0.87392
H         -5.95716       -1.46535       -0.52352
H         -0.16237        1.63705       -1.78306
H          2.17566        1.07400       -1.30854
H          4.49759        0.54563       -0.86109
H          6.45442        0.88797       -1.11297
H          8.85478        1.24243       -1.36533
H          9.63717       -2.05499        1.26966
H          5.43058       -3.74563        2.56156
H          7.82726       -3.32238        2.25510
H          3.12866       -3.19780        2.09783
