53
syn_C_NPh_diCN_m-CNbenz.log	Energy: -932255.4583991
C         -3.37440        1.52738       -0.19567
C         -2.08913        0.99603       -0.18530
C         -0.94049        1.82823       -0.00743
C          0.29155        1.24565       -0.00385
N          1.54725        1.82939        0.13764
C          1.79482        3.21192        0.33979
C          1.25100        3.85800        1.44955
C          1.48980        5.21457        1.64100
C          2.28512        5.92023        0.74159
C          2.83391        5.26850       -0.35963
C          2.58158        3.91692       -0.57034
C          0.47246       -0.17523       -0.18713
C          1.90572       -0.41492       -0.14705
C          2.68039       -1.56498       -0.25438
C          4.06125       -1.46190       -0.15832
C          2.52072        0.83744        0.05285
C          3.89874        0.96186        0.16249
C          4.65771       -0.20752        0.05092
C          6.08838       -0.11895        0.15427
N          7.24242       -0.04663        0.23588
C         -0.60453       -0.99037       -0.35855
C         -1.92178       -0.43346       -0.36007
C         -3.04218       -1.23695       -0.53005
C         -4.34064       -0.70158       -0.53904
C         -5.47662       -1.51686       -0.71106
C         -6.75172       -0.97852       -0.71917
C         -7.93105       -1.79282       -0.89330
C         -7.77412       -3.20748       -1.06284
N         -7.60379       -4.34618       -1.19669
C         -9.18390       -1.22442       -0.89658
C        -10.35752       -2.03059       -1.06903
N        -11.32683       -2.65094       -1.20541
C         -6.92665        0.44365       -0.54908
C         -8.25546        0.98367       -0.56076
C         -9.34339        0.19039       -0.72695
C         -5.81553        1.25069       -0.37939
C         -4.50957        0.71933       -0.36802
H         -3.50630        2.59901       -0.06696
H         -1.06606        2.89894        0.11646
H          0.65123        3.29202        2.15560
H          1.06459        5.71761        2.50385
H          2.47777        6.97669        0.89929
H          3.45148        5.81516       -1.06530
H          2.98556        3.40425       -1.43800
H          2.21392       -2.53289       -0.40875
H          4.68812       -2.34244       -0.24036
H          4.37672        1.91988        0.33178
H         -0.48367       -2.06102       -0.49922
H         -2.91407       -2.30885       -0.66065
H         -5.34058       -2.58737       -0.83922
H         -8.37843        2.05519       -0.43237
H        -10.34556        0.60331       -0.73508
H         -5.95001        2.32204       -0.25143
