32
syn_S_O_diCN_2-Cl.log	Energy: -1135198.8684272
C          0.87227       -1.56661       -0.00209
C         -0.29130       -0.79641       -0.00205
C         -1.58250       -1.40886       -0.00300
C         -2.65815       -0.58377       -0.00289
O         -3.97020       -0.98010       -0.00370
C         -2.58279        0.84529       -0.00187
C         -3.95833        1.29647       -0.00214
C         -4.69730        0.17124       -0.00322
Cl        -6.38912       -0.04127       -0.00406
C         -1.35871        1.45374       -0.00095
C         -0.18091        0.64631       -0.00101
C          1.08931        1.22395       -0.00008
C          2.25492        0.45152       -0.00013
C          3.54190        1.05202        0.00083
C          4.66257        0.26281        0.00075
C          6.05302        0.67030        0.00161
C          6.45546        2.03764        0.00273
N          6.73168        3.16337        0.00356
C          6.91543       -0.38679        0.00110
C          8.33453       -0.30839        0.00164
N          9.49285       -0.26045        0.00211
C          4.54217       -1.16663       -0.00029
S          6.11923       -1.94573       -0.00010
C          3.32448       -1.78280       -0.00122
C          2.14321       -0.98597       -0.00117
H          0.78696       -2.65056       -0.00287
H         -1.68780       -2.48812       -0.00379
H         -4.33068        2.30911       -0.00160
H         -1.26344        2.53535       -0.00016
H          1.17667        2.30779        0.00071
H          3.63199        2.13507        0.00162
H          3.23540       -2.86501       -0.00198
