45
syn_C_S_3-OMe_diOMe.log	Energy: -947999.1695397
C         -2.63413        0.60408       -1.66369
C         -3.72940        0.69018       -0.81137
C         -4.97314        1.24923       -1.24431
C         -6.01870        1.31284       -0.37535
S         -7.62687        1.94331       -0.69794
C         -5.90677        0.83174        0.97506
C         -7.13859        1.01482        1.72341
O         -7.13282        0.59672        3.00746
C         -8.29430        0.79445        3.79237
C         -8.11886        1.58759        0.98457
O         -9.39644        1.84702        1.34790
C         -9.70476        3.22878        1.49083
C         -4.73428        0.29336        1.41962
C         -3.60923        0.20383        0.54508
C         -2.39902       -0.33870        0.96469
C         -1.29103       -0.42708        0.10791
C         -0.06151       -0.97686        0.53208
C          1.02196       -1.05757       -0.32080
C          2.28720       -1.61943        0.10593
O          2.29775       -2.04520        1.39136
C          3.49068       -2.60632        1.88913
C          3.34482       -1.68955       -0.75277
C          0.90937       -0.57442       -1.67618
C          2.05011       -0.66911       -2.54474
C          3.21167       -1.20453       -2.09341
C         -0.29274       -0.03469       -2.09857
C         -1.41097        0.05723       -1.24314
H         -2.72448        0.96962       -2.68427
H         -5.06156        1.61363       -2.26381
H         -8.06035        0.37515        4.77195
H         -9.15947        0.28164        3.36340
H         -8.52358        1.86132        3.89935
H        -10.74794        3.27845        1.80584
H         -9.58237        3.76301        0.54140
H         -9.06174        3.69242        2.24907
H         -4.65257       -0.06801        2.44022
H         -2.30699       -0.70518        1.98467
H          0.03136       -1.34251        1.54931
H          4.31503       -1.88264        1.85654
H          3.77457       -3.50354        1.32460
H          3.28735       -2.87860        2.92531
H          4.29495       -2.10799       -0.44280
H          1.96075       -0.30438       -3.56387
H          4.07203       -1.27458       -2.75245
H         -0.38170        0.33048       -3.11936
