36
syn_S_O_diCF3_C.log	Energy: -1153970.1879065
C          0.77939       -1.65285       -0.07436
C         -0.36279       -0.85060       -0.05562
C         -1.67093       -1.42315       -0.09065
C         -2.72617       -0.56920       -0.06976
O         -4.04525       -0.92218       -0.09691
C         -2.60590        0.85572       -0.01524
C         -3.97059        1.34291       -0.01156
C         -4.75181        0.24871       -0.06075
C         -1.36395        1.42686        0.01932
C         -0.20964        0.58719        0.00008
C          1.07730        1.12663        0.03401
C          2.22047        0.32209        0.01532
C          3.52348        0.88724        0.05041
C          4.62880        0.07410        0.03011
C          6.03693        0.43512        0.05811
C          6.44047        1.88057        0.12009
F          5.92929        2.46339        1.21956
F          7.76037        2.07062        0.14143
F          5.95147        2.55014       -0.93929
C          6.85458       -0.64242        0.02328
C          8.36390       -0.69380        0.03502
F          8.89220       -0.06156       -1.01736
F          8.87245       -0.15388        1.14688
F          8.77892       -1.97171       -0.01580
C          4.46012       -1.34926       -0.02700
S          6.00778       -2.17278       -0.04513
C          3.22675       -1.93358       -0.06131
C          2.06613       -1.10922       -0.04087
H          0.66395       -2.73337       -0.11650
H         -1.80568       -2.49857       -0.13236
H         -4.30313        2.36967        0.02321
H         -5.82484        0.12839       -0.07667
H         -1.23688        2.50475        0.06100
H          1.19529        2.20699        0.07616
H          3.62618        1.96623        0.09316
H          3.11230       -3.01275       -0.10417
