47
syn_O_NPh_2-Cl_tetClbenz.log	Energy: -2199228.3561699
C         -3.42579        1.28334       -0.22782
C         -2.12253        0.78923       -0.14142
C         -0.99534        1.65860       -0.07098
C          0.24684        1.10232        0.01205
N          1.47708        1.75285        0.09063
C          1.56446        3.17814        0.09868
C          1.50304        3.86320        1.30856
C          1.55005        5.25308        1.31093
C          1.64513        5.94957        0.10855
C          1.68655        5.25768       -1.09952
C          1.64047        3.86775       -1.10773
C          0.46975       -0.31544        0.03214
C          1.91260       -0.48892        0.12869
C          2.73244       -1.61025        0.18777
Cl         2.02933       -3.19455        0.14690
C          4.11844       -1.46196        0.27981
Cl         5.13997       -2.85751        0.35501
C          2.48622        0.80524        0.16170
C          3.87065        0.96828        0.25184
Cl         4.59281        2.54422        0.28983
C          4.67775       -0.17392        0.31104
Cl         6.39446        0.00399        0.42436
C         -0.59904       -1.16706       -0.03482
C         -1.92033       -0.63811       -0.12319
C         -3.02996       -1.48298       -0.19231
C         -4.33505       -0.99156       -0.27856
C         -5.45476       -1.87351       -0.34758
C         -6.71451       -1.34729       -0.43037
C         -8.05588       -1.88720       -0.51442
C         -8.86410       -0.81245       -0.56995
Cl       -10.56513       -0.71129       -0.67897
C         -6.88124        0.07237       -0.44613
O         -8.21555        0.38348       -0.53271
C         -5.86233        0.96546       -0.38395
C         -4.53674        0.43942       -0.29669
H         -3.58100        2.35962       -0.24164
H         -1.13456        2.73479       -0.08357
H          1.43119        3.30180        2.23464
H          1.51337        5.79215        2.25231
H          1.68368        7.03453        0.11281
H          1.75632        5.80032       -2.03697
H          1.67432        3.30978       -2.03803
H         -0.46746       -2.24213       -0.02202
H         -2.87279       -2.55926       -0.17825
H         -5.28942       -2.94684       -0.33312
H         -8.36169       -2.92185       -0.53034
H         -6.03711        2.03571       -0.39895
