42
syn_S_NPh_3-CN_3-Cl.log	Energy: -1209826.9047112
C         -0.93590        0.97047        0.54823
C         -1.82696       -0.08985        0.74719
C         -3.23183        0.12813        0.80429
C         -4.05175       -0.95044        0.99481
N         -5.43652       -1.02324        1.10574
C         -6.35274        0.05208        1.02009
C         -6.27899        0.95238       -0.04364
C         -7.18657        2.00298       -0.11997
C         -8.18078        2.14669        0.84438
C         -8.25915        1.23718        1.89536
C         -7.34151        0.19684        1.99321
C         -3.53285       -2.28274        1.16578
C         -4.68247       -3.12239        1.38780
Cl        -4.64091       -4.82888        1.64002
C         -5.78957       -2.34280        1.35054
C         -2.18550       -2.51578        1.11312
C         -1.29719       -1.42677        0.89645
C          0.08667       -1.61849        0.83336
C          0.97211       -0.55907        0.63291
C          2.37950       -0.76530        0.57054
C          3.21830        0.29695        0.37366
C          4.67108        0.31396        0.27850
C          5.47004       -0.86287        0.38613
N          6.09033       -1.83850        0.47805
C          5.17722        1.55516        0.07883
C          2.68308        1.62173        0.22942
S          3.97104        2.80127       -0.01223
C          1.34265        1.86523        0.28261
C          0.44381        0.77574        0.48692
H         -1.33251        1.97728        0.43780
H         -3.62440        1.13503        0.70652
H         -5.52442        0.81442       -0.81130
H         -7.12545        2.70229       -0.94814
H         -8.89216        2.96358        0.77627
H         -9.02843        1.34481        2.65372
H         -7.37717       -0.49541        2.82903
H         -6.82916       -2.61938        1.45131
H         -1.78915       -3.51871        1.24298
H          0.48429       -2.62451        0.94533
H          2.77984       -1.76985        0.68043
H          6.22359        1.81132       -0.02253
H          0.94292        2.86920        0.17322
