36
syn_C_O_C_3-CF3.log	Energy: -741244.2920220
C         -2.41941        1.31088        0.21288
C         -3.60000        0.59607        0.38222
C         -4.86902        1.25928        0.43020
C         -5.96781        0.48540        0.59839
O         -7.26753        0.92585        0.67042
C         -5.93229       -0.93786        0.72897
C         -7.32275       -1.31884        0.88621
C         -7.85398       -2.69255        1.06109
F         -7.54074       -3.47993        0.01682
F         -7.34160       -3.28424        2.15467
F         -9.19130       -2.69151        1.18534
C         -8.03763       -0.17846        0.84152
C         -4.74062       -1.60000        0.68753
C         -3.53721       -0.84767        0.51223
C         -2.29685       -1.47646        0.46358
C         -1.10427       -0.75695        0.29279
C          0.15459       -1.39221        0.24337
C          1.32498       -0.67328        0.07497
C          2.61187       -1.31057        0.02351
C          3.74630       -0.58220       -0.14246
C          1.26223        0.76425       -0.05413
C          2.49011        1.49012       -0.22794
C          3.68415        0.84380       -0.27047
C          0.03293        1.39879       -0.00740
C         -1.16721        0.67741        0.16388
H         -2.46495        2.39317        0.11539
H         -4.93526        2.33760        0.33485
H         -9.09977       -0.00031        0.91766
H         -4.69048       -2.67993        0.78490
H         -2.24921       -2.55871        0.56093
H          0.20061       -2.47474        0.34074
H          2.65590       -2.39220        0.12088
H          4.71257       -1.07608       -0.17965
H          2.44059        2.57156       -0.32480
H          4.60457        1.40457       -0.40230
H         -0.01427        2.48128       -0.10463
