49
syn_S_NPh_diOMe_3-F.log	Energy: -1069501.1931413
C         -0.88956        0.97579        0.98549
C         -1.92033        0.05556        0.75261
C         -3.28645        0.43647        0.85876
C         -4.25094       -0.50854        0.62841
N         -5.63878       -0.41329        0.64416
C         -6.40903        0.73539        0.92878
C         -6.12183        1.51679        2.04979
C         -6.88993        2.64359        2.32103
C         -7.95923        2.98419        1.49687
C         -8.25285        2.19327        0.38952
C         -7.47580        1.07822        0.09630
C         -3.90985       -1.85518        0.25320
C         -5.16573       -2.51957        0.04444
F         -5.29121       -3.80174       -0.30526
C         -6.17283       -1.64894        0.27432
C         -2.60094       -2.24518        0.14537
C         -1.57096       -1.30097        0.39934
C         -0.21775       -1.65086        0.30406
C          0.80365       -0.73247        0.53639
C          2.17998       -1.09456        0.43522
C          3.15509       -0.16481        0.66514
C          4.59327       -0.33428        0.59648
O          5.16150       -1.52868        0.23680
C          5.24011       -1.70250       -1.17143
C          5.27317        0.79753        0.90826
O          6.58139        1.07046        0.97313
C          7.48012       -0.02295        1.12837
C          2.79539        1.17926        1.02650
S          4.22705        2.16758        1.30879
C          1.49640        1.57021        1.13512
C          0.45418        0.62255        0.88844
H         -1.14879        1.99837        1.25149
H         -3.53786        1.46228        1.10755
H         -5.31275        1.22662        2.71209
H         -6.66032        3.24790        3.19339
H         -8.56117        3.86003        1.71745
H         -9.08204        2.45289       -0.26155
H         -7.68089        0.47911       -0.78575
H         -7.24101       -1.80174        0.24395
H         -2.34487       -3.26124       -0.13981
H          0.04192       -2.67343        0.03865
H          2.44877       -2.11711        0.18400
H          4.25376       -1.60146       -1.63970
H          5.62389       -2.71060       -1.34008
H          5.92269       -0.96865       -1.61987
H          8.43958        0.42596        1.38724
H          7.57617       -0.59381        0.20085
H          7.14480       -0.68865        1.92866
H          1.23157        2.58739        1.41026
