52
syn_C_NPh_p-CNbenz_2-CN.log	Energy: -874391.3147506
C          1.19171       -2.39564        0.43805
C          0.20358       -1.52887       -0.04211
C         -1.17463       -1.87076        0.02511
C         -2.09012       -0.97567       -0.45938
N         -3.47263       -1.06619       -0.52604
C         -4.26380       -2.14225       -0.04156
C         -4.14760       -2.53282        1.29222
C         -4.91282       -3.59229        1.76604
C         -5.80621       -4.24483        0.92011
C         -5.92615       -3.84179       -0.40669
C         -5.14740       -2.79855       -0.89600
C         -1.70567        0.28161       -1.04611
C         -2.91786        0.93132       -1.46375
C         -3.94354        0.09571       -1.13733
C         -5.33580        0.31938       -1.33834
N         -6.46388        0.51752       -1.51768
C         -0.37917        0.62730       -1.11851
C          0.60701       -0.26268       -0.61698
C          1.96901        0.05639       -0.67184
C          2.94793       -0.81188       -0.19003
C          4.33096       -0.48945       -0.24533
C          5.30243       -1.33924        0.22585
C          6.73855       -1.02341        0.17721
C          7.22594        0.17592       -0.35806
C          8.58899        0.44752       -0.39036
C          9.05019        1.68859       -0.94715
N          9.42231        2.69041       -1.39647
C          7.67274       -1.95592        0.68602
C          9.04728       -1.66449        0.64513
C          9.51337       -0.48074        0.11618
C          4.89346       -2.60484        0.79715
C          5.90246       -3.51171        1.29842
C          7.21245       -3.20787        1.24724
C          3.56090       -2.93745        0.86103
C          2.54706       -2.07075        0.37874
H          0.89382       -3.34879        0.86894
H         -1.47611       -2.82370        0.44783
H         -3.46758       -1.99909        1.94871
H         -4.82161       -3.89741        2.80377
H         -6.41015       -5.06479        1.29568
H         -6.62131       -4.34639       -1.06998
H         -5.22184       -2.49269       -1.93448
H         -3.01855        1.89591       -1.93869
H         -0.07154        1.57131       -1.55947
H          2.26930        1.00850       -1.10385
H          4.59272        0.46948       -0.68141
H          6.54892        0.92021       -0.76001
H          9.74961       -2.39276        1.04067
H         10.57467       -0.25986        0.08669
H          5.57125       -4.45588        1.72235
H          7.95715       -3.90087        1.62855
H          3.26964       -3.89229        1.29299
