45
syn_C_S_benz_tetFbenz.log	Energy: -1174250.6123564
C         -3.45252        1.08930       -0.80173
C         -2.12506        0.72598       -0.58923
C         -1.04211        1.48436       -1.13307
C          0.23838        1.08939       -0.89804
S          1.69173        1.90362       -1.48993
C          0.54193       -0.07877       -0.11170
C          1.98302       -0.28164       -0.01164
C          2.68858       -1.28151        0.64971
F          2.04938       -2.24406        1.32148
C          4.07584       -1.30223        0.62691
F          4.74425       -2.26174        1.26165
C          2.70612        0.70555       -0.70206
C          4.09062        0.69001       -0.72812
F          4.77168        1.62989       -1.38517
C          4.77829       -0.31580       -0.06247
F          6.10674       -0.34438       -0.07829
C         -0.47555       -0.82098        0.41944
C         -1.83422       -0.44514        0.19935
C         -2.88744       -1.18701        0.73107
C         -4.22240       -0.82340        0.51847
C         -5.29823       -1.57423        1.05666
C         -6.61457       -1.22566        0.85344
C         -7.74081       -1.99412        1.40463
C         -7.56256       -3.14916        2.18513
C         -8.64191       -3.85102        2.68998
C         -9.06178       -1.56307        1.14550
C        -10.14748       -2.28740        1.66578
C         -9.94684       -3.41970        2.43035
C         -6.89791       -0.04974        0.06130
C         -8.27333        0.33538       -0.16531
C         -9.29284       -0.37852        0.34611
C         -5.86668        0.69292       -0.46993
C         -4.51062        0.34338       -0.26725
H         -3.67466        1.97245       -1.39636
H         -1.26206        2.36660       -1.72717
H         -0.26419       -1.70294        1.01344
H         -2.66596       -2.07040        1.32583
H         -5.04110       -2.44918        1.64500
H         -6.56389       -3.51047        2.40492
H         -8.47175       -4.73994        3.28978
H        -11.15621       -1.94075        1.45601
H        -10.79440       -3.97043        2.82652
H         -8.46214        1.22261       -0.76363
H        -10.32164       -0.07710        0.16749
H         -6.09654        1.57494       -1.06355
