52
syn_O_NPh_3-OMe_m-CNbenz.log	Energy: -886989.5624830
C         -3.32298        1.50225       -0.47731
C         -2.02872        0.98781       -0.38560
C         -0.90556        1.83540       -0.14322
C          0.33269        1.26907       -0.06021
N          1.57352        1.87195        0.15376
C          1.79062        3.25621        0.36740
C          1.14613        3.90543        1.42046
C          1.35562        5.26511        1.62304
C          2.22132        5.97313        0.79316
C          2.87006        5.31930       -0.25089
C          2.64812        3.96446       -0.47425
C          0.54121       -0.14577       -0.22414
C          1.97139       -0.36881       -0.09647
C          2.76486       -1.50994       -0.14986
C          4.13614       -1.39207        0.03011
C          2.56061        0.89222        0.13371
C          3.92826        1.03064        0.32826
C          4.70564       -0.13061        0.26973
C          6.12598       -0.02652        0.46087
N          7.27231        0.05724        0.61308
C         -0.51742       -0.97472       -0.45742
C         -1.83453       -0.43417       -0.54146
C         -2.94232       -1.24948       -0.77577
C         -4.23925       -0.73586       -0.86642
C         -5.35793       -1.58656       -1.10620
C         -6.60262       -1.02910       -1.18570
C         -7.93939       -1.53797       -1.40900
O         -8.18769       -2.84638       -1.60150
C         -9.54825       -3.16651       -1.80427
C         -8.77218       -0.47331       -1.37629
C         -6.77763        0.37816       -1.03163
O         -8.09371        0.70754       -1.14817
C         -5.74970        1.23825       -0.80163
C         -4.43539        0.68827       -0.71257
H         -3.47222        2.57341       -0.36192
H         -1.05266        2.90526       -0.03479
H          0.49064        3.33880        2.07441
H          0.85093        5.76916        2.44145
H          2.39012        7.03233        0.95997
H          3.54242        5.86709       -0.90380
H          3.12983        3.45124       -1.30093
H          2.31865       -2.48357       -0.32719
H          4.77601       -2.26630       -0.00906
H          4.38505        1.99419        0.52307
H         -0.37470       -2.04468       -0.58528
H         -2.79272       -2.32075       -0.89258
H         -5.21173       -2.65615       -1.22196
H         -9.93983       -2.65992       -2.69656
H        -10.15113       -2.87947       -0.93232
H         -9.59784       -4.24633       -1.94457
H         -9.83963       -0.37373       -1.49175
H         -5.91350        2.30462       -0.68878
