49
syn_S_NPh_2-CN_p-CNbenz.log	Energy: -1075685.9833013
C         -3.43468        1.38699       -0.22894
C         -2.13751        0.87623       -0.16608
C         -1.00257        1.73809       -0.08082
C          0.23770        1.17485       -0.01933
N          1.48802        1.79052        0.05597
C          1.71083        3.19135        0.10186
C          1.16498        3.94571        1.13985
C          1.37729        5.31965        1.17675
C          2.14734        5.93670        0.19404
C          2.69766        5.17770       -0.83542
C          2.47238        3.80622       -0.89114
C          0.43883       -0.25070       -0.05153
C          1.87689       -0.46138        0.00926
C          2.66694       -1.59960        0.02136
C          4.05563       -1.45199        0.10240
C          4.89590       -2.61457        0.11379
N          5.57477       -3.55482        0.12238
C          2.47442        0.81536        0.07345
C          3.85650        0.97188        0.16493
C          4.63703       -0.17351        0.17672
C         -0.62943       -1.09344       -0.13271
C         -1.95124       -0.55622       -0.18933
C         -3.06813       -1.38604       -0.27124
C         -4.36852       -0.87313       -0.33316
C         -5.50183       -1.72455       -0.41687
C         -6.76550       -1.19132       -0.47706
C         -8.03008       -1.87711       -0.56482
C         -9.08493       -1.02852       -0.60622
C        -10.45391       -1.40533       -0.69290
N        -11.57116       -1.70876       -0.76349
C         -6.93843        0.23650       -0.45501
S         -8.63743        0.67649       -0.54241
C         -5.87533        1.08949       -0.37540
C         -4.55580        0.55578       -0.31188
H         -3.57816        2.46487       -0.21336
H         -1.14241        2.81429       -0.07080
H          0.58352        3.44990        1.91094
H          0.94996        5.90706        1.98341
H          2.31798        7.00803        0.23030
H          3.29400        5.65525       -1.60655
H          2.87656        3.20777       -1.70186
H          2.22653       -2.59012       -0.02799
H          4.30889        1.95515        0.22965
H          5.71624       -0.08910        0.24663
H         -0.49439       -2.17143       -0.15973
H         -2.92532       -2.46422       -0.28848
H         -5.35787       -2.80167       -0.43292
H         -8.13389       -2.95507       -0.59496
H         -6.01220        2.16675       -0.35953
