59
syn_NPh_NPh_2-CN_tetFbenz.log	Energy: -1196629.1421631
C         -3.76599        0.38337        0.40518
C         -2.40923        0.18481        0.16026
C         -1.44758        1.21087        0.41687
C         -0.13467        0.95113        0.16037
N          0.97983        1.78028        0.31832
C          0.91653        3.13220        0.75341
C          0.42438        3.41777        2.02552
C          0.32949        4.74040        2.44560
C          0.74021        5.77204        1.60590
C          1.23823        5.47963        0.33859
C          1.31696        4.16160       -0.09556
C          0.30621       -0.31029       -0.37542
C          1.74308       -0.19720       -0.54108
C          2.70804       -1.08048       -0.99807
F          2.36823       -2.30519       -1.40840
C          4.03937       -0.69443       -1.02959
F          4.98273       -1.52788       -1.46927
C          2.10993        1.09345       -0.10832
C          3.44618        1.47980       -0.12217
F          3.84877        2.68258        0.29997
C          4.39686        0.58109       -0.59170
F          5.67766        0.94046       -0.61844
C         -0.58798       -1.30755       -0.62913
C         -1.97436       -1.09052       -0.36419
C         -2.92070       -2.08194       -0.60704
C         -4.28647       -1.88557       -0.36067
C         -5.23772       -2.90472       -0.62082
C         -6.56765       -2.67381       -0.36522
C         -7.75530       -3.46641       -0.52663
C         -8.80091       -2.69740       -0.11127
C        -10.17620       -3.06383       -0.06528
N        -11.29166       -3.37955       -0.04276
C         -6.98492       -1.40458        0.16730
N         -8.36383       -1.44306        0.31626
C         -9.17854       -0.39841        0.82798
C         -8.89564        0.14117        2.08261
C         -9.68496        1.17141        2.58070
C        -10.76555        1.64672        1.84186
C        -11.05002        1.09525        0.59598
C        -10.25144        0.08081        0.07891
C         -6.10226       -0.38771        0.42134
C         -4.72378       -0.61126        0.16291
H         -4.09544        1.34269        0.79781
H         -1.77404        2.17047        0.80446
H          0.12503        2.60215        2.67641
H         -0.05436        4.96280        3.43640
H          0.67355        6.80312        1.93873
H          1.55829        6.28112       -0.31977
H          1.68940        3.92387       -1.08676
H         -0.26177       -2.26008       -1.03382
H         -2.59103       -3.04027       -1.00246
H         -4.90437       -3.85658       -1.02510
H         -7.82706       -4.47864       -0.89622
H         -8.06714       -0.25555        2.66089
H         -9.46359        1.59226        3.55656
H        -11.38644        2.44407        2.23800
H        -11.89115        1.46122        0.01592
H        -10.45615       -0.33901       -0.90058
H         -6.43296        0.57209        0.80507
