33
syn_C_O_diF_C.log	Energy: -654306.2509536
C          0.87963       -1.59480       -0.49731
C         -0.25553       -0.84250       -0.21629
C         -1.56888       -1.36327       -0.44891
C         -2.62015       -0.56254       -0.14705
O         -3.94188       -0.87845       -0.29781
C         -2.49583        0.76200        0.38611
C         -3.86014        1.22537        0.54680
C         -4.64400        0.21569        0.12801
C         -1.25499        1.28326        0.61762
C         -0.09823        0.49541        0.32289
C          1.18470        0.98745        0.54347
C          2.33173        0.23016        0.26078
C          3.63134        0.73088        0.48530
C          4.74756       -0.03292        0.19961
C          6.07612        0.45380        0.41927
F          6.22729        1.68777        0.91662
C          7.16136       -0.30754        0.13437
F          8.39493        0.16583        0.34725
C          4.60043       -1.36589       -0.33744
C          5.78129       -2.13273       -0.62308
C          7.01909       -1.62234       -0.39541
C          3.32689       -1.86011       -0.55902
C          2.17409       -1.09880       -0.27489
H          0.76328       -2.59779       -0.90167
H         -1.70567       -2.36110       -0.85156
H         -4.19060        2.18168        0.92408
H         -5.71745        0.11367        0.06756
H         -1.12712        2.28366        1.02099
H          1.30409        1.99016        0.94766
H          3.75342        1.73103        0.88858
H          5.66683       -3.13412       -1.02684
H          7.92185       -2.18577       -0.60466
H          3.20827       -2.86286       -0.96332
