55
syn_S_NPh_p-CNbenz_p-CNbenz.log	Energy: -1172076.0819059
C         -3.74369       -1.92926        1.01599
C         -4.68820       -1.13605        0.35833
C         -6.08769       -1.36494        0.51341
C         -6.95686       -0.55227       -0.15412
N         -8.35260       -0.57606       -0.17811
C         -9.16993       -1.48524        0.54213
C         -9.08621       -1.53957        1.93305
C         -9.88210       -2.43804        2.63549
C        -10.77287       -3.26537        1.95617
C        -10.85917       -3.20113        0.56795
C        -10.05124       -2.32029       -0.14354
C         -6.50952        0.51064       -1.01413
C         -7.70873        1.12809       -1.55804
C         -7.91710        2.18886       -2.42494
C         -9.23104        2.54751       -2.74334
C         -9.47397        3.64020       -3.64048
N         -9.67050        4.52330       -4.36611
C         -8.80924        0.42910       -1.01780
C        -10.12220        0.78634       -1.32109
C        -10.31875        1.84908       -2.18885
C         -5.17600        0.74731       -1.17724
C         -4.22538       -0.06681       -0.49320
C         -2.85221        0.14580       -0.63322
C         -1.91191       -0.64763        0.02620
C         -0.51183       -0.42669       -0.11994
C          0.38846       -1.21829        0.53595
C          1.84688       -1.15751        0.51976
C          2.66677       -0.27232       -0.17284
C          4.05267       -0.38363       -0.05217
C          4.90308        0.52777       -0.76519
N          5.58918        1.26376       -1.34094
C          2.43148       -2.14803        1.32846
C          3.81420       -2.26341        1.45242
C          4.62346       -1.37739        0.75905
C         -0.08435       -2.28164        1.37933
S          1.24527       -3.17342        2.12500
C         -1.41275       -2.53027        1.54944
C         -2.37183       -1.71585        0.87418
H         -4.08890       -2.73710        1.65709
H         -6.43508       -2.17389        1.14814
H         -8.40269       -0.87513        2.45248
H         -9.81462       -2.48176        3.71805
H        -11.39872       -3.95959        2.50807
H        -11.54808       -3.84792        0.03369
H        -10.09278       -2.27823       -1.22765
H         -7.08404        2.73823       -2.85128
H        -10.96415        0.25588       -0.89050
H        -11.32723        2.15398       -2.44718
H         -4.82214        1.54527       -1.82466
H         -2.50613        0.95266       -1.27547
H         -0.17547        0.38290       -0.76277
H          2.24153        0.50130       -0.80396
H          4.25529       -3.03126        2.07916
H          5.70283       -1.44646        0.83896
H         -1.76076       -3.33637        2.18879
