46
syn_C_S_p-CNbenz_benz.log	Energy: -983112.3400771
C         -3.44785        0.96468       -0.98813
C         -2.11751        0.64661       -0.72459
C         -1.04004        1.35068       -1.34591
C          0.24442        1.00409       -1.05681
S          1.69823        1.75120       -1.71891
C          0.55663       -0.05918       -0.13653
C          1.99858       -0.23866        0.00641
C          2.68499       -1.15921        0.79998
C          4.07307       -1.17001        0.79712
C          2.72795        0.66341       -0.78354
C          4.11939        0.65897       -0.79206
C          4.78496       -0.26530        0.00490
C         -0.45670       -0.74558        0.46858
C         -1.81987       -0.42048        0.19895
C         -2.86905       -1.10821        0.80581
C         -4.20625       -0.78922        0.54168
C         -5.27774       -1.48551        1.15656
C         -6.59526       -1.17844        0.90294
C         -7.71984       -1.88805        1.53036
C         -7.53255       -2.93702        2.44048
C         -8.61524       -3.58967        3.01780
C         -8.38279       -4.66056        3.94635
N         -8.19472       -5.52487        4.69579
C         -9.04514       -1.50811        1.21272
C        -10.12830       -2.17990        1.80670
C         -9.92992       -3.20958        2.69969
C         -6.88643       -0.10860       -0.02327
C         -8.26398        0.22872       -0.30325
C         -9.28359       -0.43016        0.27851
C         -5.85982        0.57961       -0.63080
C         -4.50156        0.27328       -0.37786
H         -3.67503        1.76893       -1.68416
H         -1.26695        2.15381       -2.04109
H          2.13441       -1.86371        1.41684
H          4.60832       -1.88513        1.41363
H          4.67443        1.36071       -1.40652
H          5.87046       -0.28186        0.00967
H         -0.24170       -1.55117        1.16598
H         -2.64335       -1.91282        1.50218
H         -5.01409       -2.28204        1.84513
H         -6.53627       -3.26281        2.71467
H        -11.13877       -1.87424        1.55052
H        -10.76809       -3.72504        3.15557
H         -8.45730        1.03692       -1.00345
H        -10.31332       -0.16416        0.05699
H         -6.09467        1.38261       -1.32588
