54
syn_C_NPh_p-OMebenz_C.log	Energy: -830512.3039176
C          1.16742       -2.36195        0.77342
C          0.27891       -1.71428       -0.09026
C         -1.12941       -1.88797        0.02888
C         -1.94523       -1.22105       -0.84291
N         -3.33214       -1.22330       -0.96266
C         -4.25393       -1.91619       -0.14638
C         -4.15172       -1.85030        1.24451
C         -5.06869       -2.53125        2.03725
C         -6.10218       -3.25943        1.45358
C         -6.20961       -3.31095        0.06664
C         -5.28348       -2.65219       -0.73468
C         -1.43104       -0.37616       -1.89205
C         -2.57447        0.10832       -2.62964
C         -3.67494       -0.42367       -2.04666
C         -0.07837       -0.19757       -2.01917
C          0.81174       -0.85269       -1.12285
C          2.19734       -0.69135       -1.22153
C          3.07992       -1.33860       -0.35510
C          4.48771       -1.17569       -0.45405
C          5.36459       -1.80955        0.39348
C          6.82545       -1.64790        0.29999
C          7.42993       -0.83419       -0.66192
C          8.81119       -0.69577       -0.73268
O          9.26953        0.12480       -1.71377
C         10.66210        0.30253       -1.83337
C          7.65374       -2.34043        1.21626
C          9.04242       -2.18815        1.12902
C          9.63229       -1.37994        0.17280
C          4.82593       -2.67386        1.42250
C          5.73268       -3.35095        2.32527
C          7.06511       -3.19287        2.22697
C          3.46587       -2.84539        1.53568
C          2.54999       -2.19740        0.66842
H          0.76989       -3.01248        1.54965
H         -1.52444       -2.54781        0.79470
H         -3.36634       -1.25267        1.69558
H         -4.98303       -2.47745        3.11831
H         -6.82021       -3.78348        2.07648
H         -7.00905       -3.88034       -0.39768
H         -5.34311       -2.71829       -1.81685
H         -2.56105        0.77674       -3.47802
H         -4.72009       -0.28595       -2.28797
H          0.32932        0.43362       -2.80438
H          2.59763       -0.04262       -1.99801
H          4.85296       -0.51999       -1.23834
H          6.84656       -0.28080       -1.38850
H         11.09266        0.74563       -0.92593
H         10.80694        0.98753       -2.66970
H         11.17347       -0.64435       -2.05035
H          9.67354       -2.72221        1.83499
H         10.71158       -1.28891        0.13863
H          5.30440       -3.99443        3.08916
H          7.73427       -3.70764        2.91186
H          3.07484       -3.49798        2.31354
