43
syn_S_S_benz_p-CNbenz.log	Energy: -1184405.2298958
C         -3.02103       -1.60152        1.73816
C         -4.13095       -0.98898        1.15305
C         -5.46043       -1.27545        1.58682
C         -6.51083       -0.65166        0.98395
S         -8.21855       -0.87229        1.37706
C         -6.32261        0.29256       -0.08243
C         -7.59722        0.82064       -0.55932
C         -7.82315        1.74777       -1.57154
C         -9.13166        2.12415       -1.87721
C         -9.36954        3.08057       -2.92178
N         -9.56056        3.85278       -3.76514
C         -8.69287        0.28029        0.13676
C        -10.00108        0.65286       -0.16451
C        -10.21705        1.57707       -1.17427
C         -5.05836        0.58168       -0.51340
C         -3.92776       -0.04510        0.08561
C         -2.62606        0.23309       -0.33692
C         -1.51625       -0.37946        0.24787
C         -0.18866       -0.09423       -0.18537
C          0.88260       -0.70602        0.40223
C          2.30363       -0.55085        0.10513
C          2.90729        0.26327       -0.85462
C          4.28948        0.26845       -0.98156
C          3.10926       -1.35300        0.92801
C          4.49558       -1.35344        0.80709
C          5.07799       -0.53605       -0.15446
C          0.66451       -1.64678        1.46846
S          2.17772       -2.31399        2.07954
C         -0.58663       -1.95063        1.91534
C         -1.71950       -1.32324        1.31562
H         -3.17413       -2.31485        2.54471
H         -5.61144       -1.98822        2.39232
H         -6.99529        2.17996       -2.12429
H        -10.83988        0.23013        0.37829
H        -11.22617        1.88310       -1.42768
H         -4.89514        1.29320       -1.31892
H         -2.47280        0.94637       -1.14375
H         -0.04499        0.61957       -0.99250
H          2.29721        0.88978       -1.49901
H          4.76038        0.90089       -1.72736
H          5.11008       -1.97747        1.44818
H          6.15825       -0.52481       -0.26168
H         -0.74196       -2.66258        2.72080
