42
syn_S_O_tetClbenz_diCF3.log	Energy: -2403908.8445931
C         -3.27209       -0.03543       -1.98470
C         -4.39221       -0.02820       -1.14625
C         -5.71002        0.10102       -1.67420
C         -6.73540        0.09771       -0.78379
O         -8.06386        0.21462       -1.09465
C         -6.57806       -0.02525        0.62679
C         -7.93087        0.01575        1.15272
C         -8.32833       -0.04894        2.59388
F         -7.34524       -0.60315        3.32525
F         -8.56440        1.16784        3.10257
F         -9.42948       -0.78802        2.77827
C         -8.73731        0.17487        0.08062
C        -10.23404        0.25994       -0.05487
F        -10.56119        1.01894       -1.10320
F        -10.76962       -0.95220       -0.23897
F        -10.77853        0.79511        1.04024
C         -5.32218       -0.15319        1.15838
C         -4.20121       -0.15423        0.28054
C         -2.89913       -0.27979        0.77889
C         -1.78683       -0.28657       -0.06085
C         -0.46749       -0.41630        0.46646
C          0.62467       -0.42423       -0.36044
C          2.05849       -0.54513       -0.05832
C          2.73330       -0.68603        1.16168
Cl         1.86180       -0.74108        2.66068
C          4.12962       -0.78524        1.20002
Cl         4.94867       -0.95946        2.71269
C          2.83391       -0.50663       -1.23236
C          4.22004       -0.60384       -1.20907
Cl         5.09211       -0.54779       -2.70288
C          4.87712       -0.74454        0.01248
Cl         6.59784       -0.86693        0.05649
C          0.40673       -0.29783       -1.78095
S          1.90233       -0.32749       -2.70492
C         -0.83323       -0.17108       -2.32767
C         -1.97972       -0.16127       -1.47958
H         -3.41581        0.05930       -3.05821
H         -5.87917        0.19793       -2.74083
H         -5.16671       -0.25190        2.22643
H         -2.75355       -0.37524        1.85228
H         -0.36091       -0.50834        1.53813
H         -0.96686       -0.07760       -3.40145
