61
syn_NPh_NPh_C_p-CF3benz.log	Energy: -1101214.2542735
C         -3.80332        0.30118        0.49377
C         -2.43898        0.07780        0.31522
C         -1.48684        1.13782        0.42905
C         -0.16679        0.85065        0.24700
N          0.94404        1.69935        0.29058
C          0.90586        3.08653        0.57406
C          0.34395        3.53647        1.76911
C          0.30042        4.89958        2.04073
C          0.83349        5.81337        1.13506
C          1.40153        5.36004       -0.05254
C          1.42891        3.99975       -0.34153
C          0.29477       -0.47563       -0.07077
C          1.73892       -0.38372       -0.21463
C          2.72334       -1.31974       -0.50333
C          4.04859       -0.90226       -0.55589
C          5.15236       -1.87390       -0.85286
F          4.69003       -3.10060       -1.14719
F          5.90362       -1.46968       -1.89569
F          5.99452       -2.00711        0.19056
C          2.08884        0.96144        0.01437
C          3.41702        1.38360       -0.02433
C          4.38701        0.43586       -0.31378
C         -0.59470       -1.50275       -0.18481
C         -1.98817       -1.25983        0.00821
C         -2.92734       -2.28413       -0.09877
C         -4.29770       -2.06214        0.08045
C         -5.24438       -3.11555       -0.04389
C         -6.57882       -2.85975        0.13913
C         -7.77003       -3.67274        0.06302
C         -8.82062       -2.85944        0.32512
C         -7.01068       -1.52459        0.46567
N         -8.39716       -1.55998        0.57985
C         -9.25222       -0.47698        0.88347
C         -8.96549        0.36777        1.95748
C         -9.81789        1.42653        2.24982
C        -10.96789        1.63609        1.49305
C        -11.25826        0.78303        0.43201
C        -10.39955       -0.26468        0.11777
C         -6.13779       -0.47583        0.57569
C         -4.75012       -0.72569        0.38769
H         -4.14591        1.30800        0.72333
H         -1.82789        2.14429        0.65053
H         -0.04987        2.81394        2.47705
H         -0.13996        5.24707        2.97028
H          0.80559        6.87623        1.35402
H          1.81312        6.06796       -0.76536
H          1.84661        3.63774       -1.27599
H          2.46618       -2.35775       -0.68344
H          3.68647        2.41598        0.16944
H          5.42948        0.73584       -0.35322
H         -0.26138       -2.50884       -0.42651
H         -2.58490       -3.29040       -0.33167
H         -4.89728       -4.11489       -0.29323
H         -7.81881       -4.73049       -0.15048
H         -9.87542       -3.08989        0.38648
H         -8.08724        0.17944        2.56633
H         -9.58886        2.08090        3.08545
H        -11.63437        2.45956        1.72950
H        -12.14992        0.94153       -0.16691
H        -10.60407       -0.91133       -0.73016
H         -6.47678        0.53275        0.78983
