40
syn_C_O_2-Cl_p-CNbenz.log	Energy: -972444.2302278
C         -3.36370        1.14640        0.52398
C         -2.07712        0.64689        0.37577
C         -0.92741        1.43055        0.72777
C          0.29029        0.86931        0.55270
O          1.49423        1.47213        0.83564
C          0.49268       -0.45472        0.03884
C          1.93789       -0.63008        0.02431
C          2.79536       -1.65481       -0.34690
C          4.17272       -1.44618       -0.21268
C          5.08652       -2.48811       -0.58866
N          5.82370       -3.32985       -0.89238
C          2.46605        0.57124        0.51749
C          3.82516        0.79870        0.65851
C          4.67775       -0.23215        0.28470
C         -0.57724       -1.22275       -0.30397
C         -1.89958       -0.69432       -0.14566
C         -3.01863       -1.44497       -0.48329
C         -4.32254       -0.94270       -0.33460
C         -5.46028       -1.70150       -0.67612
C         -6.74026       -1.19504       -0.52485
C         -7.90209       -1.96372       -0.87125
C         -9.13920       -1.43199       -0.70837
Cl       -10.55915       -2.36015       -1.12744
C         -6.91739        0.13964       -0.00604
C         -8.25430        0.64241        0.14171
C         -9.33284       -0.10983       -0.19499
C         -5.80678        0.89357        0.33249
C         -4.49886        0.38994        0.18341
H         -3.50070        2.15190        0.91485
H         -1.04264        2.43531        1.11926
H          2.41955       -2.59664       -0.73210
H          4.20103        1.73927        1.04320
H          5.75101       -0.10504        0.37532
H         -0.45115       -2.22831       -0.69533
H         -2.88397       -2.45091       -0.87438
H         -5.32472       -2.70723       -1.06710
H         -7.77707       -2.96831       -1.26229
H         -8.39150        1.64693        0.53216
H        -10.34182        0.27111       -0.08286
H         -5.94230        1.89943        0.72347
