47
syn_C_NPh_diCl_2-CF3.log	Energy: -1450505.2019291
C          0.96138       -1.75180       -0.02848
C         -0.20023       -0.98150       -0.07930
C         -1.49088       -1.58416       -0.05777
C         -2.58537       -0.76819       -0.10837
N         -3.93410       -1.09735       -0.10982
C         -4.43577       -2.42511        0.01702
C         -4.23758       -3.11504        1.21171
C         -4.69569       -4.42183        1.33418
C         -5.35821       -5.03195        0.27160
C         -5.55367       -4.33683       -0.91842
C         -5.08358       -3.03457       -1.05403
C         -2.48703        0.66685       -0.18770
C         -3.83842        1.16715       -0.22549
C         -4.65828        0.08854       -0.17422
C         -6.15328        0.10278       -0.17677
F         -6.66078       -0.59611        0.84967
F         -6.60635        1.35874       -0.08517
F         -6.66184       -0.42638       -1.30546
C         -1.25529        1.26493       -0.21145
C         -0.07996        0.46216       -0.15668
C          1.19063        1.03739       -0.17711
C          2.35551        0.26231       -0.12545
C          3.64107        0.84931       -0.14639
C          4.78947        0.08303       -0.09544
C          6.12122        0.65005       -0.11507
Cl         6.29251        2.37761       -0.20772
C          7.22028       -0.15360       -0.06234
Cl         8.83586        0.48614       -0.08385
C          4.67016       -1.35757       -0.01869
C          5.86359       -2.15268        0.03439
C          7.08916       -1.57883        0.01379
C          3.41784       -1.94057        0.00208
C          2.23537       -1.17129       -0.04927
H          0.87587       -2.83457        0.02854
H         -1.58640       -2.66412       -0.00377
H         -3.73037       -2.61968        2.03372
H         -4.54340       -4.96037        2.26430
H         -5.72155       -6.05006        0.37143
H         -6.06578       -4.81143       -1.74949
H         -5.21748       -2.48644       -1.97967
H         -4.15246        2.19853       -0.27763
H         -1.15844        2.34532       -0.27299
H          1.27972        2.11983       -0.23515
H          3.71284        1.92997       -0.20421
H          5.76643       -3.23285        0.09188
H          7.99327       -2.17552        0.05365
H          3.33855       -3.02373        0.05961
