39
syn_O_O_2-CF3_tetFbenz.log	Energy: -1085241.7134403
C         -3.31918        1.28283        0.31560
C         -2.02581        0.77361        0.21454
C         -0.88719        1.55951        0.58535
C          0.33431        0.98953        0.45710
O          1.53235        1.59367        0.76454
C          0.54036       -0.34304       -0.02492
C          1.98007       -0.52743        0.00560
C          2.83917       -1.56495       -0.32113
F          2.36735       -2.72283       -0.78481
C          4.20672       -1.39016       -0.16122
F          5.05488       -2.36996       -0.46704
C          2.50105        0.67692        0.49003
C          3.86119        0.87330        0.65733
F          4.36058        2.01662        1.11735
C          4.70814       -0.17977        0.32417
F          6.02127       -0.03649        0.46885
C         -0.52307       -1.11534       -0.38567
C         -1.84098       -0.57321       -0.27432
C         -2.96097       -1.32287       -0.63027
C         -4.26084       -0.81456       -0.52991
C         -5.39022       -1.60040       -0.89968
C         -6.64284       -1.06067       -0.78390
C         -7.99084       -1.51920       -1.04601
C         -8.79027       -0.48953       -0.71655
C        -10.27787       -0.36055       -0.76831
F        -10.81647       -1.49689       -1.22847
F        -10.79059       -0.11408        0.44396
F        -10.65529        0.63941       -1.57507
C         -6.79404        0.27357       -0.29713
O         -8.11997        0.60835       -0.26225
C         -5.75979        1.07357        0.07121
C         -4.44491        0.53205       -0.04093
H         -3.45930        2.29632        0.68358
H         -1.00863        2.57204        0.95416
H         -0.38411       -2.12694       -0.75282
H         -2.82036       -2.33667       -0.99824
H         -5.24118       -2.61181       -1.26629
H         -8.30565       -2.47955       -1.42505
H         -5.91815        2.08236        0.43640
