34
syn_S_O_2-F_2-OMe.log	Energy: -865186.8179642
C          1.28456       -1.14878        0.01596
C          2.39947       -0.31058        0.01320
C          3.72838       -0.84172        0.01930
C          4.74979        0.04597        0.01598
O          6.08852       -0.27308        0.02071
C          4.59619        1.46980        0.00692
C          5.93942        1.99988        0.00647
C          6.75289        0.91868        0.01477
O          8.07629        0.87031        0.01777
C          8.69719       -0.41286        0.02652
C          3.33347        1.99678        0.00100
C          2.20444        1.12094        0.00393
C          0.89906        1.61804       -0.00206
C         -0.21864        0.77902        0.00061
C         -1.54538        1.29723       -0.00569
C         -2.62449        0.45382       -0.00291
C         -4.03560        0.78163       -0.00830
C         -4.79273       -0.32523       -0.00312
F         -6.11648       -0.37688       -0.00593
C         -2.40471       -0.97067        0.00657
S         -3.93023       -1.85841        0.00867
C         -1.15350       -1.51049        0.01280
C         -0.01910       -0.64611        0.00995
H          1.43468       -2.22626        0.02297
H          3.89827       -1.91316        0.02623
H          6.25542        3.03081        0.00076
H          9.76792       -0.21256        0.02847
H          8.42491       -0.98554       -0.86427
H          8.41985       -0.97591        0.92186
H          3.17102        3.07062       -0.00593
H          0.74745        2.69526       -0.00908
H         -1.69118        2.37426       -0.01278
H         -4.43824        1.78606       -0.01561
H         -0.99971       -2.58589        0.01987
