36
syn_S_O_2-CF3_2-CF3.log	Energy: -1153971.5938541
C          1.16410       -1.19612       -0.09771
C          2.30633       -0.39351       -0.05354
C          3.61412       -0.96539       -0.09453
C          4.66723       -0.11034       -0.04715
O          5.98941       -0.46188       -0.07503
C          4.54446        1.31115        0.04033
C          5.90599        1.80379        0.06370
C          6.68450        0.70997       -0.00700
C          8.17278        0.57815       -0.02306
F          8.61137       -0.14891        1.01237
F          8.59931       -0.01920       -1.14305
F          8.73682        1.79056        0.04674
C          3.30202        1.88196        0.08110
C          2.15053        1.04173        0.03513
C          0.86152        1.57933        0.07420
C         -0.27926        0.77492        0.03015
C         -1.58773        1.33238        0.07096
C         -2.68834        0.51737        0.02593
C         -4.08770        0.87883        0.05551
C         -4.90241       -0.19084       -0.00682
C         -6.39801       -0.15297        0.00044
F         -6.84519        1.10667        0.09758
F         -6.91031       -0.68407       -1.12082
F         -6.90379       -0.84818        1.03121
C         -2.51708       -0.90858       -0.06342
S         -4.06878       -1.73490       -0.10696
C         -1.28138       -1.48539       -0.10465
C         -0.12286       -0.65542       -0.05869
H          1.28127       -2.27512       -0.16453
H          3.75052       -2.03918       -0.16092
H          6.24268        2.82747        0.12446
H          3.17549        2.95856        0.14753
H          0.74321        2.65849        0.14106
H         -1.70315        2.41096        0.13827
H         -4.44494        1.89904        0.12078
H         -1.15905       -2.56244       -0.17174
