34
syn_O_O_2-OMe_diCl.log	Energy: -1177039.4575527
C          0.92185       -1.19491       -0.00083
C          2.13010       -0.49197       -0.00091
C          3.38434       -1.17534       -0.00034
C          4.50652       -0.41321       -0.00046
O          5.80014       -0.88133        0.00001
C          4.49872        1.01236       -0.00113
C          5.89765        1.37943       -0.00103
Cl         6.53154        2.97280       -0.00165
C          6.59355        0.22262       -0.00035
Cl         8.26978       -0.05953        0.00010
C          3.31398        1.69292       -0.00169
C          2.09559        0.95179       -0.00159
C          0.85468        1.59702       -0.00215
C         -0.35254        0.89650       -0.00207
C         -1.60830        1.57913       -0.00265
C         -2.76879        0.85498       -0.00256
C         -4.18005        1.16075       -0.00301
C         -4.80800       -0.03772       -0.00257
O         -6.10561       -0.29988       -0.00266
C         -6.51137       -1.66671       -0.00268
C         -2.69000       -0.57551       -0.00187
O         -3.95895       -1.10654       -0.00189
C         -1.53886       -1.28673       -0.00130
C         -0.31314       -0.54760       -0.00139
H          0.94667       -2.28231       -0.00032
H          3.42911       -2.25901        0.00018
H          3.28855        2.77850       -0.00220
H          0.83049        2.68446       -0.00266
H         -1.62119        2.66506       -0.00316
H         -4.65851        2.12702       -0.00359
H         -7.60035       -1.64171       -0.00253
H         -6.14842       -2.18268        0.89037
H         -6.14867       -2.18255       -0.89593
H         -1.53345       -2.37150       -0.00080
