48
syn_C_S_diCF3_m-CF3benz.log	Energy: -1463182.0562101
C         -3.27633        0.71919        1.56024
C         -1.96390        0.48972        1.17086
C         -0.85815        0.84198        2.00984
C          0.41032        0.59843        1.58553
S          1.89206        0.96009        2.47215
C          0.68273       -0.00921        0.30554
C          2.11679       -0.16420        0.08186
C          2.76992       -0.70772       -1.02601
C          4.15346       -0.76893       -1.04789
C          2.87696        0.31308        1.15973
C          4.26637        0.25790        1.14871
C          4.89461       -0.28726        0.03634
C          6.39729       -0.33429       -0.04035
F          6.82953       -1.53785       -0.45419
F          6.87026        0.57024       -0.91579
F          6.97531       -0.08277        1.14435
C         -0.35182       -0.35450       -0.51246
C         -1.70478       -0.12015       -0.11465
C         -2.77187       -0.46404       -0.93333
C         -4.10352       -0.23384       -0.54456
C         -5.18120       -0.58481       -1.38076
C         -6.50338       -0.36377       -1.01278
C         -7.64315       -0.71259       -1.85030
C         -7.30488       -1.34985       -3.18897
F         -6.60717       -2.48802       -3.00393
F         -8.34751       -1.66490       -3.95191
F         -6.53098       -0.52316       -3.91990
C         -8.91991       -0.46161       -1.41281
C        -10.18949       -0.78292       -2.19639
F        -10.24808       -0.12327       -3.36014
F        -10.31768       -2.09393       -2.43693
F        -11.28576       -0.41977       -1.50424
C         -6.74986        0.24555        0.27255
C         -8.10017        0.48192        0.67175
C         -9.13549        0.14492       -0.13132
C         -5.69712        0.59436        1.10294
C         -4.35951        0.37256        0.73347
H         -3.47505        1.17761        2.52604
H         -1.05507        1.29984        2.97475
H          2.19735       -1.08415       -1.86813
H          4.66672       -1.19423       -1.90360
H          4.84975        0.62576        1.98491
H         -0.16672       -0.81308       -1.48031
H         -2.57691       -0.92257       -1.89995
H         -4.93457       -1.03790       -2.33087
H         -8.28526        0.94053        1.63887
H        -10.15095        0.33184        0.18867
H         -5.91263        1.05181        2.06553
