40
syn_C_O_3-CN_diCF3.log	Energy: -1010541.6463860
C         -1.94547        0.60832        2.03568
C         -3.20705        0.65775        1.45159
C         -4.33897        1.15424        2.17169
C         -5.52721        1.16705        1.52113
O         -6.71823        1.60839        2.03654
C         -5.71861        0.72062        0.17802
C         -7.13497        0.91900       -0.07602
C         -7.85050        0.63895       -1.35923
F         -7.19840       -0.30532       -2.06010
F         -9.09756        0.19706       -1.15464
F         -7.92587        1.72853       -2.13569
C         -7.64019        1.45804        1.05436
C         -9.03699        1.87044        1.43968
F         -8.99634        2.82603        2.37039
F         -9.70075        2.34118        0.38107
F         -9.72397        0.83616        1.93750
C         -4.65729        0.23705       -0.53394
C         -3.37106        0.19712        0.08592
C         -2.26101       -0.28346       -0.60433
C         -0.98906       -0.33357       -0.01695
C          0.13536       -0.82047       -0.71858
C          1.38429       -0.86476       -0.13015
C          2.55808       -1.35751       -0.82072
C          2.42892       -1.82155       -2.17199
N          2.30528       -2.19262       -3.26374
C          3.77908       -1.38693       -0.20849
C          1.55123       -0.40617        1.22846
C          2.85654       -0.45905        1.82410
C          3.92894       -0.93013        1.13495
C          0.45529        0.07237        1.92444
C         -0.82724        0.12497        1.33963
H         -1.82085        0.95357        3.05918
H         -4.24101        1.50464        3.19309
H         -4.77032       -0.11322       -1.55343
H         -2.38262       -0.62979       -1.62773
H          0.00718       -1.16517       -1.74142
H          4.64226       -1.76101       -0.74887
H          2.96858       -0.11077        2.84727
H          4.90994       -0.96468        1.59672
H          0.58217        0.41750        2.94787
