56
syn_NPh_NPh_C_3-OMe.log	Energy: -865218.8354049
C          1.56254       -0.87679       -0.02695
C          2.64813        0.00133       -0.08791
C          3.99026       -0.47573       -0.04799
C          5.01167        0.43315       -0.09770
N          6.39220        0.24770       -0.10785
C          7.08531       -0.97861       -0.04100
C          6.72679       -1.94215        0.90460
C          7.42140       -3.14498        0.96442
C          8.48930       -3.38750        0.10457
C          8.85498       -2.41852       -0.82576
C          8.15153       -1.22218       -0.90925
C          4.76582        1.84644       -0.22010
C          6.06789        2.47362       -0.30269
O          6.30889        3.80690       -0.43879
C          6.08300        4.54505        0.75167
C          7.00228        1.49517       -0.23707
C          3.48490        2.32593       -0.27368
C          2.39043        1.41944       -0.19807
C          1.06644        1.86367       -0.24078
C         -0.01867        0.98558       -0.17917
C         -1.36162        1.45452       -0.23528
C         -2.40018        0.56350       -0.17019
C         -3.83757        0.70098       -0.22351
C         -4.35795       -0.54536       -0.12937
C         -2.12573       -0.84563       -0.03592
N         -3.35487       -1.50051       -0.00718
C         -3.57435       -2.89010        0.11451
C         -2.90131       -3.62771        1.09069
C         -3.13072       -4.99416        1.20488
C         -4.04469       -5.62882        0.36772
C         -4.72492       -4.88796       -0.59466
C         -4.48485       -3.52511       -0.73174
C         -0.85336       -1.34532        0.00045
C          0.23818       -0.43237       -0.06689
H          1.75534       -1.94462        0.05457
H          4.17474       -1.54383        0.00454
H          5.91992       -1.73528        1.59989
H          7.13534       -3.88957        1.70121
H          9.03378       -4.32487        0.15996
H          9.68332       -2.59916       -1.50420
H          8.41262       -0.47956       -1.65710
H          6.26340        5.59368        0.50780
H          6.77218        4.22729        1.54469
H          5.05311        4.42547        1.11027
H          8.07946        1.57780       -0.24635
H          3.29299        3.38875       -0.39462
H          0.87377        2.93119       -0.32730
H         -1.54708        2.52044       -0.33950
H         -4.39638        1.62134       -0.31028
H         -5.39141       -0.86320       -0.10746
H         -2.21659       -3.12339        1.76458
H         -2.60280       -5.56197        1.96507
H         -4.22595       -6.69460        0.46520
H         -5.43565       -5.37459       -1.25573
H         -4.98723       -2.95087       -1.50429
H         -0.65613       -2.41055        0.06710
