47
syn_O_NPh_diCF3_diF.log	Energy: -1208274.2613139
C          0.39567        1.15417        0.47854
C         -0.80790        0.44391        0.47603
C         -2.06251        1.11894        0.46059
C         -3.20471        0.37087        0.45337
N         -4.53864        0.77366        0.45640
C         -5.03155        2.10050        0.36462
C         -4.56381        2.94136       -0.64514
C         -5.03266        4.24799       -0.72328
C         -5.98273        4.70810        0.18456
C         -6.45763        3.85831        1.17990
C         -5.97687        2.55768        1.28159
C         -3.17579       -1.07101        0.47999
C         -4.54824       -1.49109        0.49724
F         -4.97701       -2.75364        0.52201
C         -5.31386       -0.37800        0.48140
F         -6.62693       -0.26746        0.47553
C         -1.98333       -1.74092        0.49816
C         -0.76746       -1.00073        0.49077
C          0.47413       -1.64052        0.50347
C          1.67813       -0.93146        0.50487
C          2.93040       -1.61177        0.51584
C          4.08374       -0.87465        0.52295
C          5.50539       -1.17012        0.53091
C          6.12362       -2.53004        0.57895
F          5.29101       -3.44123        0.04449
F          7.27283       -2.58750       -0.10641
F          6.38021       -2.91839        1.83635
C          6.13147        0.02681        0.54898
C          7.58927        0.40314        0.53968
F          8.31205       -0.48097        1.23303
F          8.07026        0.44564       -0.70859
F          7.76075        1.60804        1.08819
C          4.01161        0.54876        0.51158
O          5.27700        1.07803        0.52284
C          2.85477        1.25763        0.49648
C          1.63612        0.51403        0.49290
H          0.36509        2.24125        0.46952
H         -2.09236        2.20374        0.46111
H         -3.84419        2.56509       -1.36526
H         -4.66431        4.90279       -1.50684
H         -6.35336        5.72593        0.11559
H         -7.19769        4.21161        1.89105
H         -6.32717        1.89769        2.06786
H         -1.95439       -2.82585        0.52294
H          0.50513       -2.72762        0.51347
H          2.95166       -2.69569        0.51986
H          2.84803        2.34199        0.48893
