52
syn_NPh_NPh_3-Cl_diF.log	Energy: -1206268.6754574
C          0.61651        0.46682        0.47754
C         -0.67523        0.14301        0.05813
C         -1.80820        0.87628        0.51909
C         -3.04581        0.51646        0.06997
N         -4.30063        1.04655        0.37455
C         -4.57830        2.18953        1.16467
C         -3.89069        3.37964        0.92527
C         -4.15163        4.49542        1.71275
C         -5.11219        4.43609        2.71888
C         -5.80675        3.25033        2.94214
C         -5.53543        2.12193        2.17660
C         -3.23886       -0.58964       -0.83518
C         -4.65655       -0.68079       -1.04706
F         -5.27364       -1.57264       -1.82437
C         -5.24048        0.29659       -0.32090
F         -6.51763        0.60854       -0.21390
C         -2.16864       -1.31034       -1.28839
C         -0.85688       -0.95961       -0.85903
C          0.26689       -1.66143       -1.29948
C          1.56087       -1.33608       -0.88209
C          2.69504       -2.05494       -1.35120
C          3.94259       -1.70384       -0.91241
C          5.27190       -2.18537       -1.19279
Cl         5.65973       -3.49573       -2.24802
C          6.15206       -1.44431       -0.47867
C          4.11082       -0.62245        0.02290
N          5.47528       -0.49417        0.27378
C          6.09699        0.44582        1.12756
C          7.20662        1.16232        0.67794
C          7.83550        2.06692        1.52652
C          7.34957        2.27810        2.81382
C          6.23685        1.56695        3.25562
C          5.61560        0.64307        2.42291
C          3.05024        0.10876        0.48270
C          1.74223       -0.23754        0.03945
H          0.75211        1.29530        1.16961
H         -1.67124        1.69554        1.21761
H         -3.16417        3.42561        0.12036
H         -3.61194        5.41894        1.52712
H         -5.32001        5.31159        3.32597
H         -6.55629        3.19667        3.72559
H         -6.05826        1.18964        2.36065
H         -2.30815       -2.14738       -1.96573
H          0.13156       -2.48975       -1.99155
H          2.56366       -2.86913       -2.05832
H          7.22725       -1.52800       -0.41278
H          7.56104        1.01963       -0.33849
H          8.69981        2.62019        1.17213
H          7.83624        2.99259        3.47013
H          5.85783        1.71797        4.26176
H          4.77064        0.06023        2.77480
H          3.18262        0.94405        1.16277
