48
syn_C_O_p-CF3benz_tetFbenz.log	Energy: -1183014.9147142
C         -3.32023        0.83292       -1.00815
C         -2.00354        0.50731       -0.69356
C         -0.90241        1.15679       -1.34119
C          0.34634        0.78234       -0.97759
O          1.51474        1.29710       -1.49218
C          0.61786       -0.21887        0.01045
C          2.06666       -0.29027        0.07378
C          2.97687       -1.03604        0.80641
F          2.56255       -1.93638        1.69828
C          4.33578       -0.83820        0.60431
F          5.23231       -1.54046        1.29404
C          2.52826        0.64783       -0.85556
C          3.87844        0.86162       -1.07341
F          4.32151        1.75233       -1.95583
C          4.77723        0.10352       -0.32856
F          6.08307        0.27507       -0.50444
C         -0.40708       -0.85491        0.64421
C         -1.75259       -0.50699        0.30742
C         -2.83329       -1.12996        0.92889
C         -4.15633       -0.80115        0.61138
C         -5.25723       -1.43326        1.24261
C         -6.56121       -1.11528        0.93628
C         -7.71500       -1.75858        1.58005
C         -7.57171       -2.75299        2.56151
C         -8.67472       -3.34148        3.14803
C         -8.51223       -4.38534        4.21795
F         -7.23828       -4.78775        4.35443
F         -8.91544       -3.92572        5.41647
F         -9.25278       -5.47676        3.95431
C         -9.02088       -1.37203        1.20660
C        -10.13109       -1.98320        1.81664
C         -9.96982       -2.95727        2.77676
C         -6.80481       -0.10150       -0.06410
C         -8.16734        0.24691       -0.39982
C         -9.21355       -0.35177        0.19895
C         -5.74809        0.52369       -0.68846
C         -4.40423        0.20506       -0.38155
H         -3.51328        1.59465       -1.75982
H         -1.07350        1.91890       -2.09341
H         -0.21847       -1.61539        1.39482
H         -2.64268       -1.89213        1.68107
H         -5.03034       -2.18868        1.98811
H         -6.58798       -3.07934        2.87449
H        -11.12937       -1.67615        1.51735
H        -10.83154       -3.42624        3.24015
H         -8.32584        1.01186       -1.15510
H        -10.23185       -0.07917       -0.06408
H         -5.94750        1.28485       -1.43938
