53
syn_C_O_p-OMebenz_p-OMebenz.log	Energy: -866259.8486642
C         -3.35826        0.83673       -1.02231
C         -2.03890        0.46604       -0.77147
C         -0.94583        1.08825       -1.45657
C          0.30836        0.67132       -1.15591
O          1.46134        1.15598       -1.71354
C          0.59167       -0.35373       -0.19354
C          2.04220       -0.47555       -0.19196
C          2.95209       -1.26496        0.49449
C          4.31434       -1.10029        0.22816
O          5.14788       -1.90803        0.93872
C          6.53380       -1.79242        0.71791
C          2.49428        0.46180       -1.12870
C          3.83296        0.63964       -1.40597
C          4.74785       -0.15669       -0.71327
C         -0.42902       -0.96274        0.47296
C         -1.77747       -0.57021        0.20338
C         -2.85024       -1.16771        0.86329
C         -4.17460       -0.79347        0.60955
C         -5.26795       -1.39962        1.27959
C         -6.57299       -1.03782        1.03618
C         -7.71619       -1.65913        1.72474
C         -7.55913       -2.66650        2.68065
C         -8.65308       -3.23915        3.31861
O         -8.36313       -4.20725        4.22585
C         -9.43348       -4.82293        4.90518
C         -9.02634       -1.22334        1.41054
C        -10.11552       -1.81247        2.06393
C         -9.95029       -2.80930        3.00909
C         -6.82920       -0.00167        0.06081
C         -8.19415        0.39462       -0.21113
C         -9.22904       -0.18272        0.42644
C         -5.78018        0.59840       -0.59972
C         -4.43374        0.23449       -0.35760
H         -3.55951        1.61539       -1.75456
H         -1.12616        1.86660       -2.19020
H          2.64107       -2.00172        1.22739
H          7.00539       -2.51950        1.38015
H          6.90093       -0.78782        0.96633
H          6.79916       -2.02683       -0.32149
H          4.16486        1.37044       -2.13468
H          5.80388       -0.02936       -0.91946
H         -0.23925       -1.74168        1.20640
H         -2.65184       -1.94687        1.59627
H         -5.03456       -2.17316        2.00445
H         -6.58111       -3.03963        2.96117
H         -8.98227       -5.55670        5.57412
H        -10.11077       -5.33676        4.21074
H        -10.00583       -4.09819        5.49861
H        -11.11921       -1.47427        1.81895
H        -10.81907       -3.24020        3.49267
H         -8.36086        1.17532       -0.94832
H        -10.24967        0.12445        0.21260
H         -5.98751        1.37660       -1.33111
