53
syn_C_C_p-OMebenz_m-CNbenz.log	Energy: -853661.5342276
C         -1.99213       -0.29685       -1.94569
C         -2.97349        0.13172       -1.04850
C         -4.24569        0.59072       -1.47213
C         -5.20391        1.00989       -0.57866
C         -6.49257        1.47289       -1.04490
C         -7.44304        1.88688       -0.18799
C         -4.93026        0.99154        0.84197
C         -5.97826        1.44621        1.76631
C         -5.80372        1.46321        3.16163
C         -6.80076        1.89392        4.01202
C         -7.21647        1.88650        1.24249
C         -8.22608        2.32310        2.11038
C         -8.02726        2.32958        3.48386
C         -9.07092        2.77977        4.36155
N         -9.91186        3.14280        5.07218
C         -3.69884        0.54847        1.26655
C         -2.69558        0.11163        0.36258
C         -1.44822       -0.33644        0.80567
C         -0.46655       -0.76500       -0.09038
C          0.80377       -1.22198        0.35110
C          1.77764       -1.64640       -0.52089
C          3.09770       -2.12197       -0.07350
C          3.45750       -2.17506        1.27542
C          4.70951       -2.62813        1.67563
O          4.93205       -2.62928        3.01433
C          6.18377       -3.08052        3.48065
C          4.04029       -2.54203       -1.04276
C          5.29565       -2.99507       -0.62045
C          5.64351       -3.04457        0.71791
C          1.49124       -1.62450       -1.94019
C          2.50321       -2.06835       -2.87495
C          3.70409       -2.50072       -2.44944
C          0.26742       -1.18537       -2.38929
C         -0.74596       -0.74467       -1.50134
H         -2.20301       -0.28154       -3.01259
H         -4.46558        0.60998       -2.53721
H         -6.67437        1.47758       -2.11614
H         -8.40642        2.23219       -0.55239
H         -4.86865        1.13303        3.59890
H         -6.64463        1.89863        5.08529
H         -9.17398        2.65974        1.70137
H         -3.45244        0.51879        2.32310
H         -1.23693       -0.35192        1.87274
H          0.98112       -1.22418        1.42180
H          2.77774       -1.86625        2.06089
H          6.14600       -2.99901        4.56747
H          7.00426       -2.45834        3.10063
H          6.36435       -4.12708        3.20355
H          6.01597       -3.31668       -1.36833
H          6.62573       -3.40178        1.00401
H          2.26462       -2.04266       -3.93462
H          4.45505       -2.83164       -3.16228
H          0.06519       -1.17395       -3.45801
