42
syn_C_O_3-CF3_benz.log	Energy: -837633.0760946
C         -3.32208        0.79004        1.19961
C         -2.01997        0.47411        0.83648
C         -0.89455        1.02757        1.53352
C          0.34229        0.66963        1.11695
O          1.52161        1.10145        1.66588
C          0.58545       -0.22820        0.02220
C          2.03508       -0.32185       -0.06784
C          2.92816       -1.00464       -0.88879
C          4.29212       -0.84204       -0.66672
C          2.52675        0.50260        0.94989
C          3.87771        0.68002        1.18994
C          4.75672       -0.01114        0.35851
C         -0.46170       -0.76940       -0.65798
C         -1.80057       -0.43501       -0.27189
C         -2.89579       -0.96621       -0.94082
C         -4.21507       -0.64838       -0.57562
C         -5.32331       -1.19001       -1.25808
C         -6.62467       -0.87619       -0.89865
C         -7.79437       -1.40546       -1.56734
C         -7.63099       -2.35579       -2.72335
F         -6.96461       -3.47065       -2.36437
F         -8.80848       -2.75096       -3.23141
F         -6.93440       -1.80018       -3.73425
C         -9.04653       -1.05784       -1.16584
C         -6.84097        0.03059        0.20581
C         -8.18463        0.36216        0.58586
C         -9.24900       -0.16071       -0.07328
C         -5.75684        0.56632        0.88115
C         -4.43189        0.25356        0.52329
H         -3.49153        1.47151        2.03002
H         -1.04142        1.70879        2.36456
H          2.56796       -1.64952       -1.68454
H          5.00538       -1.36523       -1.29535
H          4.22636        1.32639        1.98721
H          5.82571        0.09961        0.51206
H         -0.30530       -1.45104       -1.48937
H         -2.73062       -1.64811       -1.77188
H         -5.12736       -1.86641       -2.08174
H         -9.90889       -1.46556       -1.68000
H         -8.32927        1.04555        1.41837
H        -10.26210        0.09443        0.21959
H         -5.93203        1.24756        1.71074
