47
syn_C_O_p-OMebenz_2-OMe.log	Energy: -769874.9543722
C          1.08630       -1.39657        1.51838
C          0.16251       -0.94002        0.58113
C         -1.23650       -0.88114        0.88326
C         -2.06123       -0.42416       -0.08653
O         -3.42787       -0.29627        0.01859
C         -1.63828        0.00274       -1.38735
C         -2.84700        0.40053       -2.07119
C         -3.84680        0.19630       -1.18310
O         -5.14640        0.40913       -1.32579
C         -5.99885        0.08881       -0.22932
C         -0.30714       -0.04552       -1.69666
C          0.62731       -0.51724       -0.72252
C          1.99337       -0.58157       -0.99899
C          2.92074       -1.04042       -0.05691
C          4.30967       -1.10544       -0.33925
C          5.22897       -1.55496        0.58063
C          6.67229       -1.62711        0.29849
C          7.21655       -1.24440       -0.93073
C          8.58234       -1.32042       -1.17583
O          8.98081       -0.91828       -2.41074
C         10.35546       -0.97242       -2.71534
C          7.54654       -2.10143        1.30638
C          8.91938       -2.17050        1.04029
C          9.44909       -1.78907       -0.17966
C          4.75472       -1.97412        1.88060
C          5.70468       -2.44894        2.86358
C          7.02116       -2.50810        2.59150
C          3.41029       -1.91864        2.17333
C          2.45579       -1.45846        1.23473
H          0.73494       -1.71391        2.49788
H         -1.60772       -1.19291        1.85374
H         -2.95766        0.78196       -3.07367
H         -7.00466        0.33591       -0.56694
H         -5.74320        0.68309        0.65217
H         -5.93734       -0.97479        0.01700
H          0.05691        0.26829       -2.67063
H          2.34809       -0.26502       -1.97759
H          4.62746       -0.78155       -1.32530
H          6.59607       -0.87475       -1.73863
H         10.94315       -0.32841       -2.04828
H         10.45084       -0.60911       -3.73931
H         10.74193       -1.99841       -2.65961
H          9.58601       -2.53536        1.81771
H         10.51768       -1.85789       -0.34597
H          5.32324       -2.75792        3.83311
H          7.72410       -2.86661        3.33925
H          3.06630       -2.23705        3.15524
