30
syn_S_S_2-F_2-Cl.log	Energy: -1284405.1747252
C          1.01373       -1.35294       -0.00237
C          2.20530       -0.62403       -0.00133
C          3.47588       -1.27158       -0.00234
C          4.61062       -0.51554       -0.00127
S          6.27038       -1.10320       -0.00220
C          4.56844        0.92389        0.00087
C          5.89644        1.49864        0.00166
C          6.85620        0.55592        0.00019
Cl         8.55596        0.83419        0.00049
C          3.35668        1.56356        0.00188
C          2.14553        0.81573        0.00082
C          0.89619        1.44196        0.00180
C         -0.29543        0.71424        0.00076
C         -1.56645        1.35821        0.00177
C         -2.72094        0.62253        0.00070
C         -4.09373        1.08401        0.00144
C         -4.95294        0.05418       -0.00007
F         -6.27443        0.12899        0.00008
C         -2.63884       -0.81778       -0.00145
S         -4.24154       -1.55475       -0.00249
C         -1.44640       -1.47613       -0.00248
C         -0.23295       -0.72527       -0.00139
H          1.05886       -2.43973       -0.00400
H          3.51701       -2.35700       -0.00396
H          6.09808        2.56253        0.00321
H          3.30816        2.64928        0.00350
H          0.85096        2.52876        0.00343
H         -1.60786        2.44416        0.00340
H         -4.39899        2.12214        0.00300
H         -1.39740       -2.56125       -0.00410
