45
syn_C_C_2-F_p-CF3benz.log	Energy: -901269.0894832
C         -1.85136       -1.53866        1.68684
C         -2.93732       -0.71709        1.39712
C         -4.22992       -0.94110        1.94012
C         -5.29395       -0.12310        1.64738
C         -6.59874       -0.37951        2.21743
C         -7.65352        0.40926        1.94373
C         -5.11981        1.00990        0.76055
C         -6.28494        1.86139        0.47433
C         -6.20949        2.97960       -0.37114
C         -7.32060        3.76064       -0.62430
C         -7.22467        4.97203       -1.50942
F         -6.04148        5.05705       -2.13905
F         -8.18289        4.96669       -2.45355
F         -7.38373        6.10788       -0.80558
C         -7.53024        1.55361        1.06468
C         -8.64891        2.36123        0.79500
C         -8.55509        3.45410       -0.03872
C         -3.87556        1.23940        0.22686
C         -2.75760        0.40747        0.51399
C         -1.50058        0.65085       -0.03331
C         -0.40147       -0.17219        0.25370
C          0.87704        0.06614       -0.29586
C          1.95607       -0.75001       -0.00765
C          3.25934       -0.51332       -0.56317
C          4.27778       -1.34499       -0.24568
F          5.50228       -1.14066       -0.75433
C          1.77301       -1.87759        0.87938
C          2.90469       -2.71603        1.16895
C          4.12283       -2.46408        0.62705
C          0.52607       -2.12257        1.42441
C         -0.58333       -1.29781        1.13865
H         -1.98768       -2.38721        2.35359
H         -4.37529       -1.78770        2.60745
H         -6.70492       -1.23497        2.87913
H         -8.62707        0.20306        2.37975
H         -5.27380        3.24877       -0.84463
H         -9.60050        2.11034        1.25544
H         -9.42429        4.07026       -0.24404
H         -3.70326        2.07677       -0.44171
H         -1.36482        1.49952       -0.69997
H          1.01114        0.91487       -0.96235
H          3.42537        0.32499       -1.23140
H          2.76550       -3.56251        1.83553
H          4.98660       -3.08591        0.83481
H          0.39113       -2.97134        2.09122
