37
syn_S_O_benz_3-CN.log	Energy: -885341.8805929
C         -3.59183        1.09757       -0.00228
C         -4.62269        0.15246       -0.00195
C         -5.99285        0.55409       -0.00351
C         -6.92640       -0.43110       -0.00306
O         -8.29056       -0.25584       -0.00429
C         -6.61804       -1.82121       -0.00115
C         -7.91547       -2.48048       -0.00145
C         -8.16902       -3.87767       -0.00009
N         -8.34940       -5.02318        0.00115
C         -8.84017       -1.48971       -0.00315
C         -5.31642       -2.23570        0.00036
C         -4.28404       -1.25235       -0.00001
C         -2.93433       -1.62084        0.00147
C         -1.91005       -0.67522        0.00115
C         -0.53610       -1.05905        0.00268
C          0.45059       -0.11488        0.00234
C          1.89869       -0.30222        0.00372
C          2.62010       -1.49714        0.00571
C          4.00780       -1.46312        0.00678
C          2.59274        0.91754        0.00283
C          3.98364        0.96018        0.00389
C          4.68442       -0.24033        0.00588
C          0.09756        1.28088        0.00041
S          1.52144        2.32111        0.00030
C         -1.20013        1.69461       -0.00111
C         -2.24835        0.72429       -0.00078
H         -3.84679        2.15475       -0.00373
H         -6.26618        1.60356       -0.00498
H         -9.91948       -1.52503       -0.00390
H         -5.05968       -3.29088        0.00180
H         -2.67847       -2.67792        0.00292
H         -0.29063       -2.11797        0.00413
H          2.09692       -2.44912        0.00642
H          4.57029       -2.39132        0.00833
H          4.51142        1.90862        0.00319
H          5.76994       -0.22432        0.00673
H         -1.45781        2.74978       -0.00256
