60
syn_C_NPh_p-CF3benz_p-CNbenz.log	Energy: -1124364.0319538
C         -3.32580        1.46164        0.20779
C         -2.02393        0.96605        0.26422
C         -0.90053        1.78306       -0.07055
C          0.34617        1.23834        0.00883
N          1.58712        1.81544       -0.27264
C          1.79174        3.15404       -0.69512
C          1.35794        4.20815        0.10834
C          1.55203        5.51928       -0.31270
C          2.19414        5.78020       -1.52063
C          2.63334        4.72460       -2.31527
C          2.42388        3.41012       -1.91138
C          0.56524       -0.12931        0.40279
C          2.00263       -0.34549        0.34568
C          2.80581       -1.44109        0.61767
C          4.19132       -1.31059        0.47390
C          5.04497       -2.43064        0.74667
N          5.73543       -3.33620        0.96660
C          2.58307        0.87134       -0.07204
C          3.96318        1.01363       -0.20761
C          4.75705       -0.08883        0.06768
C         -0.49020       -0.92885        0.72634
C         -1.81803       -0.40623        0.67078
C         -2.92083       -1.19415        0.99660
C         -4.22637       -0.69373        0.94007
C         -5.35034       -1.49246        1.27039
C         -6.63770       -1.00815        1.21615
C         -7.81456       -1.82064        1.55407
C         -7.71198       -3.16067        1.96266
C         -8.83563       -3.90018        2.27450
C         -8.72059       -5.33805        2.69797
F         -7.44495       -5.73984        2.81799
F         -9.32096       -5.54920        3.88334
F         -9.31638       -6.15845        1.81331
C         -9.10137       -1.24520        1.46932
C        -10.23333       -2.01578        1.79094
C        -10.11192       -3.32830        2.18967
C         -6.83909        0.36313        0.80675
C         -8.18400        0.89007        0.74198
C         -9.25200        0.13262        1.05385
C         -5.75999        1.15498        0.48240
C         -4.43180        0.66837        0.53461
H         -3.48758        2.49255       -0.09891
H         -1.05639        2.81067       -0.38320
H          0.87693        3.99223        1.05727
H          1.21173        6.33919        0.31209
H          2.35153        6.80487       -1.84237
H          3.12935        4.92281       -3.26030
H          2.74043        2.57897       -2.53410
H          2.37815       -2.38513        0.93938
H          4.40485        1.95553       -0.51330
H          5.83500       -0.01352       -0.02782
H         -0.34103       -1.96354        1.02349
H         -2.76175       -2.22604        1.30213
H         -5.15453       -2.51657        1.57196
H         -6.74351       -3.63809        2.04195
H        -11.21641       -1.55838        1.72132
H        -10.99008       -3.91552        2.43762
H         -8.31115        1.92367        0.43145
H        -10.25651        0.54320        0.99979
H         -5.92832        2.18504        0.17596
