60
syn_C_NPh_diCF3_p-OMebenz.log	Energy: -1253389.9051580
C         -3.23218        1.78521       -0.18061
C         -1.96314        1.21860       -0.17894
C         -0.79550        2.00075        0.08691
C          0.42151        1.38599        0.07793
N          1.68805        1.91905        0.28861
C          1.97216        3.27259        0.58502
C          1.37136        3.88716        1.68457
C          1.64591        5.22092        1.96676
C          2.53478        5.93880        1.17077
C          3.14153        5.31979        0.08105
C          2.85464        3.99294       -0.22118
C          0.56640       -0.02374       -0.20979
C          1.99255       -0.31081       -0.16109
C          2.72200       -1.47575       -0.33736
C          4.11148       -1.42977       -0.20503
O          4.75798       -2.61268       -0.39783
C          6.15912       -2.63145       -0.26333
C          2.64146        0.90021        0.14337
C          4.01828        0.95181        0.28922
C          4.74941       -0.22362        0.10953
C         -0.52734       -0.79058       -0.46555
C         -1.83085       -0.19909       -0.45514
C         -2.96691       -0.95440       -0.70970
C         -4.25212       -0.38330       -0.71005
C         -5.39890       -1.15772       -0.96925
C         -6.67610       -0.60775       -0.97485
C         -7.88491       -1.37541       -1.23845
C         -7.67707       -2.85739       -1.50607
F         -7.06528       -3.44321       -0.45758
F         -8.78484       -3.55846       -1.73495
F         -6.88267       -3.03569       -2.58017
C         -9.10987       -0.75461       -1.23385
C        -10.44084       -1.44854       -1.50302
F        -10.49253       -1.99282       -2.72600
F        -10.71261       -2.39853       -0.59846
F        -11.46184       -0.57195       -1.44165
C         -6.79853        0.80529       -0.70455
C         -8.09971        1.39264       -0.70916
C         -9.20228        0.65035       -0.96282
C         -5.67619        1.57567       -0.44723
C         -4.38384        1.02270       -0.43948
H         -3.34010        2.84802        0.02332
H         -0.89737        3.06307        0.28373
H          0.69896        3.31249        2.31384
H          1.17369        5.69589        2.82129
H          2.75385        6.97724        1.39890
H          3.83100        5.87548       -0.54721
H          3.30312        3.50969       -1.08369
H          2.24522       -2.42204       -0.57130
H          6.46610       -3.66088       -0.45242
H          6.47300       -2.34216        0.74849
H          6.64524       -1.97105       -0.99385
H          4.52560        1.87649        0.54287
H          5.82645       -0.18271        0.22223
H         -0.43039       -1.85050       -0.68531
H         -2.86343       -2.01733       -0.91602
H         -5.24410       -2.20961       -1.16659
H         -8.19199        2.45571       -0.50519
H        -10.17870        1.11424       -0.96352
H         -5.79948        2.63743       -0.24686
