42
syn_O_NPh_2-CN_diF.log	Energy: -843254.4044181
C          0.30284       -0.83260        0.12435
C          1.54992       -0.20333        0.17169
C          2.75826       -0.95674        0.12684
C          3.94666       -0.28585        0.17082
N          5.25151       -0.77486        0.16042
C          5.65802       -2.12444        0.00180
C          5.14901       -2.87818       -1.05564
C          5.53271       -4.20685       -1.19949
C          6.43957       -4.77577       -0.30928
C          6.95640       -4.01289        0.73436
C          6.56008       -2.69071        0.90131
C          4.01122        1.15098        0.27980
C          5.40784        1.47845        0.33141
F          5.91776        2.70683        0.43115
C          6.09959        0.32018        0.25761
F          7.40278        0.12445        0.25528
C          2.86451        1.89515        0.32767
C          1.60322        1.23769        0.26910
C          0.40543        1.95470        0.30980
C         -0.84206        1.32662        0.26106
C         -2.04962        2.08107        0.30409
C         -3.24887        1.42149        0.25425
C         -4.63685        1.81823        0.27293
C         -5.34657        0.67033        0.19355
C         -6.75556        0.47147        0.17275
N         -7.90667        0.33796        0.15762
C         -3.27130       -0.00448        0.16053
O         -4.56397       -0.45211        0.12408
C         -2.15798       -0.78034        0.11568
C         -0.89463       -0.11625        0.16591
H          0.26374       -1.91711        0.05292
H          2.71747       -2.03945        0.06551
H          4.46411       -2.41803       -1.76074
H          5.13202       -4.79372       -2.02012
H          6.74383       -5.81071       -0.42940
H          7.66297       -4.45111        1.43220
H          6.94263       -2.09784        1.72511
H          2.90595        2.97653        0.41447
H          0.44502        3.03928        0.38270
H         -2.00207        3.16377        0.37562
H         -5.04619        2.81559        0.33639
H         -2.21617       -1.86096        0.04476
