39
syn_S_O_p-CF3benz_2-F.log	Energy: -1101176.7194746
C         -3.60422        1.11510       -0.00201
C         -4.63103        0.16809       -0.00104
C         -6.00416        0.56539       -0.00185
C         -6.93303       -0.42055       -0.00080
O         -8.29761       -0.23864       -0.00133
C         -6.63320       -1.82037        0.00104
C         -7.92059       -2.48747        0.00161
C         -8.81574       -1.48594        0.00014
F        -10.12322       -1.51109       -0.00011
C         -5.32632       -2.22144        0.00184
C         -4.29279       -1.23607        0.00082
C         -2.94362       -1.60098        0.00159
C         -1.91921       -0.65304        0.00062
C         -0.54586       -1.03471        0.00143
C          0.43907       -0.08762        0.00046
C          1.88692       -0.27124        0.00107
C          2.60652       -1.46568        0.00278
C          3.99264       -1.42666        0.00310
C          4.80051       -2.69430        0.00511
F          4.02862       -3.79278        0.00528
F          5.60260       -2.76749       -1.07258
F          5.60028       -2.76554        1.08465
C          2.57944        0.94903       -0.00031
C          3.97242        0.99144       -0.00000
C          4.67377       -0.20360        0.00171
C          0.08532        1.30570       -0.00140
S          1.51058        2.34815       -0.00239
C         -1.21310        1.71769       -0.00223
C         -2.25855        0.74526       -0.00124
H         -3.86192        2.17170       -0.00341
H         -6.28073        1.61407       -0.00324
H         -8.13490       -3.54416        0.00289
H         -5.05830       -3.27379        0.00323
H         -2.68448       -2.65741        0.00299
H         -0.29774       -2.09311        0.00284
H          2.08950       -2.41892        0.00386
H          4.50147        1.93866       -0.00109
H          5.75891       -0.19267        0.00197
H         -1.47271        2.77240       -0.00364
