62
syn_NPh_NPh_3-OMe_diCF3.log	Energy: -1288098.9676796
C          0.35435        0.74438        0.90472
C         -0.90367        0.42146        0.38548
C         -2.09611        0.66145        1.11996
C         -3.28894        0.32147        0.54369
N         -4.57599        0.45635        1.05229
C         -4.85776        0.97719        2.35073
C         -4.63549        2.32916        2.60035
C         -4.87037        2.83763        3.87270
C         -5.33287        2.00014        4.88512
C         -5.55196        0.64995        4.62710
C         -5.30499        0.13041        3.36052
C         -3.39276       -0.27800       -0.75483
C         -4.80568       -0.49965       -0.98374
C         -5.41181       -1.10720       -2.20783
F         -4.46388       -1.66128       -2.98680
F         -6.28726       -2.08244       -1.91165
F         -6.05957       -0.20747       -2.96629
C         -5.46705       -0.03030        0.11613
C         -6.94422        0.00034        0.39871
F         -7.29791       -0.97731        1.25148
F         -7.30308        1.16675        0.95539
F         -7.66258       -0.15119       -0.71321
C         -2.24954       -0.51646       -1.47886
C         -0.98590       -0.17000       -0.93072
C          0.19711       -0.39393       -1.64411
C          1.45117       -0.06715       -1.12771
C          2.64435       -0.28697       -1.87371
C          3.85297        0.05063       -1.32942
C          5.21651       -0.01665       -1.81090
O          5.61743       -0.50947       -3.01460
C          5.36165        0.37051       -4.09834
C          6.02307        0.45514       -0.82996
C          3.92723        0.59745        0.00179
N          5.27054        0.81952        0.28648
C          5.80992        1.34500        1.48051
C          6.78621        2.34107        1.42070
C          7.33971        2.84107        2.59416
C          6.90963        2.37012        3.83155
C          5.93079        1.38150        3.88831
C          5.38842        0.85852        2.71982
C          2.80654        0.84581        0.74545
C          1.53422        0.51757        0.19344
H          0.41466        1.18623        1.89697
H         -2.04880        1.10338        2.11022
H         -4.28652        2.96855        1.79573
H         -4.70029        3.89124        4.07067
H         -5.52198        2.40069        5.87620
H         -5.90867       -0.00540        5.41536
H         -5.46117       -0.92137        3.14789
H         -2.29200       -0.96512       -2.46392
H          0.13543       -0.83710       -2.63574
H          2.58218       -0.72191       -2.86749
H          5.93042        1.30259       -3.98700
H          4.29498        0.61490       -4.17582
H          5.68210       -0.14836       -5.00357
H          7.10086        0.52736       -0.80815
H          7.09572        2.72982        0.45527
H          8.10004        3.61424        2.53921
H          7.33617        2.76961        4.74623
H          5.59764        0.99920        4.84842
H          4.65446        0.06042        2.76035
H          2.86137        1.28859        1.73464
