34
syn_C_O_diF_2-CN.log	Energy: -712163.8907174
C          0.87367       -1.59425       -0.57362
C         -0.26301       -0.84854       -0.27893
C         -1.57382       -1.36028       -0.53960
C         -2.62556       -0.56654       -0.22140
O         -3.94678       -0.87713       -0.39432
C         -2.50046        0.73906        0.35370
C         -3.85708        1.20637        0.52058
C         -4.64570        0.20952        0.06179
C         -6.06526        0.13379       -0.01103
N         -7.22249        0.09820       -0.05885
C         -1.26047        1.25298        0.61328
C         -0.10622        0.47155        0.30343
C          1.17621        0.95493        0.55102
C          2.32250        0.20390        0.25440
C          3.62139        0.69492        0.50601
C          4.73751       -0.06248        0.20598
C          6.06499        0.41482        0.45250
F          6.21267        1.63191        0.98928
C          7.15075       -0.33990        0.15310
F          8.38278        0.12253        0.39058
C          4.59178       -1.37797       -0.37400
C          5.77371       -2.13843       -0.67337
C          7.00978       -1.63748       -0.41893
C          3.32000       -1.86260       -0.62217
C          2.16600       -1.10742       -0.32412
H          0.75925       -2.58361       -1.01013
H         -1.70960       -2.34434       -0.97440
H         -4.19425        2.14951        0.92420
H         -1.13605        2.23991        1.04885
H          1.29375        1.94409        0.98736
H          3.74191        1.68162        0.94135
H          5.66090       -3.12635       -1.10912
H          7.91341       -2.19581       -0.63772
H          3.20275       -2.85171       -1.05861
