40
syn_S_S_3-OMe_diCF3.log	Energy: -1428484.0609224
C          0.17696        1.62174       -0.12690
C         -0.91812        0.78173        0.09080
C         -2.25366        1.22418       -0.12800
C         -3.28709        0.36185        0.09956
S         -4.99489        0.70002       -0.10565
C         -3.07347       -0.98204        0.55396
C         -4.33427       -1.68734        0.71749
C         -4.34121       -3.11345        1.18893
F         -3.63569       -3.88929        0.34652
F         -3.75268       -3.21121        2.39466
F         -5.56228       -3.63930        1.29325
C         -5.40605       -0.92227        0.40675
C         -6.87349       -1.27839        0.44431
F         -7.61044       -0.22242        0.05741
F         -7.16188       -2.28926       -0.38069
F         -7.27296       -1.61383        1.67467
C         -1.79464       -1.42946        0.77109
C         -0.68848       -0.56609        0.54727
C          0.62454       -0.99599        0.76091
C          1.71880       -0.15701        0.54563
C          3.05429       -0.59889        0.76624
C          4.10176        0.25420        0.55082
C          5.52503        0.00368        0.71061
O          6.00574       -1.19938        1.13157
C          5.99657       -1.35232        2.54485
C          6.29275        1.06076        0.37915
C          3.86354        1.58953        0.08096
S          5.37774        2.45657       -0.15633
C          2.60089        2.05359       -0.14591
C          1.48795        1.19186        0.08643
H          0.00304        2.63797       -0.47292
H         -2.42815        2.23931       -0.47228
H         -1.60958       -2.44176        1.11403
H          0.79739       -2.01317        1.10462
H          3.23677       -1.61853        1.09445
H          6.66959       -0.62751        3.01897
H          6.34619       -2.36556        2.74865
H          4.98719       -1.22304        2.95480
H          7.37304        1.10139        0.41222
H          2.42330        3.06341       -0.50459
