48
syn_C_C_diCF3_tetFbenz.log	Energy: -1299447.5949254
C         -2.05029       -0.50781        2.55625
C         -3.17745       -0.03259        1.89383
C         -4.41649        0.18893        2.55073
C         -5.52180        0.65813        1.88547
C         -6.75931        0.86618        2.60368
C         -7.86303        1.32368        1.99077
C         -5.45777        0.94800        0.46316
C         -6.67618        1.44895       -0.19707
C         -6.76442        1.76979       -1.56026
F         -5.72352        1.64433       -2.39435
C         -7.93222        2.23829       -2.13950
F         -7.96048        2.52707       -3.43675
C         -7.85304        1.62736        0.57584
C         -9.02221        2.10124       -0.02612
F        -10.12821        2.26735        0.70710
C         -9.07746        2.40855       -1.37035
F        -10.19580        2.85820       -1.92838
C         -4.26449        0.73905       -0.18784
C         -3.10675        0.25297        0.48422
C         -1.90936        0.04861       -0.19385
C         -0.76663       -0.43066        0.46641
C          0.44546       -0.63617       -0.22463
C          1.58635       -1.10923        0.41037
C          2.85536       -1.33299       -0.27103
C          2.86742       -1.01615       -1.75839
F          1.95095       -1.76355       -2.40438
F          2.54536        0.27594       -1.96526
F          4.02681       -1.22090       -2.37682
C          3.93839       -1.80109        0.42963
C          5.31545       -2.07179       -0.17031
F          5.87265       -0.96599       -0.67972
F          6.16819       -2.52215        0.76944
F          5.27793       -3.01351       -1.12132
C          1.50121       -1.39156        1.82476
C          2.66334       -1.87821        2.49802
C          3.82518       -2.07328        1.83399
C          0.31776       -1.19427        2.51449
C         -0.84091       -0.71525        1.87561
H         -2.10486       -0.72311        3.62076
H         -4.48714       -0.02134        3.61535
H         -6.77467        0.64035        3.66610
H         -8.78512        1.47615        2.53858
H         -4.16817        0.94039       -1.24434
H         -1.85441        0.26378       -1.25833
H          0.44917       -0.40645       -1.28106
H          2.59893       -2.09074        3.56131
H          4.69397       -2.44185        2.36104
H          0.28282       -1.41507        3.57859
