43
syn_O_NPh_diCN_C.log	Energy: -776616.2786328
C          0.90151       -1.56383       -0.05306
C         -0.30816       -0.86311       -0.00577
C         -1.55709       -1.54404       -0.01815
C         -2.70414       -0.80019        0.03625
N         -4.03490       -1.19777        0.02168
C         -4.52338       -2.52495       -0.02204
C         -4.03030       -3.48443        0.86354
C         -4.52169       -4.78421        0.81502
C         -5.51793       -5.12731       -0.09539
C         -6.01693       -4.16352       -0.96715
C         -5.51533       -2.86668       -0.94146
C         -2.69294        0.64214        0.07704
C         -4.07300        1.06545        0.07991
C         -4.82916       -0.05755        0.04123
C         -1.49795        1.31182        0.09141
C         -0.27723        0.58113        0.05642
C          0.95999        1.22939        0.07178
C          2.16847        0.52978        0.02679
C          3.41653        1.21587        0.04367
C          4.56867        0.48118       -0.00367
C          5.98381        0.79569       -0.00603
C          6.57467        2.08535        0.04628
N          7.02189        3.15381        0.09001
C          6.63266       -0.40037       -0.06896
C          8.02688       -0.67706       -0.09841
N          9.16646       -0.88424       -0.12161
C          4.51348       -0.94107       -0.06848
O          5.78682       -1.45958       -0.10754
C          3.36002       -1.65441       -0.08760
C          2.13715       -0.91653       -0.03905
H          0.87764       -2.64998       -0.10219
H         -1.57816       -2.62730       -0.07927
H         -3.27877       -3.20295        1.59413
H         -4.13436       -5.52773        1.50484
H         -5.90411       -6.14124       -0.12465
H         -6.79032       -4.42381       -1.68321
H         -5.87724       -2.11973       -1.64156
H         -4.43811        2.08119        0.11707
H         -5.90493       -0.16746        0.05154
H         -1.46627        2.39753        0.12072
H          0.98405        2.31574        0.11913
H          3.44045        2.30044        0.09305
H          3.35639       -2.73759       -0.13768
