59
syn_C_NPh_tetFbenz_m-CF3benz.log	Energy: -1315502.5038250
C         -3.41657        1.34733        0.19840
C         -2.10596        0.87038        0.23667
C         -0.99263        1.73238        0.00055
C          0.26441        1.20499        0.05666
N          1.49663        1.82400       -0.14531
C          1.69048        3.19762       -0.43570
C          1.19860        4.16819        0.43717
C          1.38414        5.51510        0.14521
C          2.07673        5.89566       -1.00142
C          2.57507        4.92359       -1.86470
C          2.37385        3.57468       -1.59162
C          0.49965       -0.19031        0.32981
C          1.94032       -0.38048        0.28413
C          2.76261       -1.48675        0.47013
C          4.13856       -1.33107        0.36779
C          2.50702        0.87480       -0.00845
C          3.88272        1.04864       -0.10287
C          4.68361       -0.07308        0.08680
C          6.18070        0.07784        0.05193
F          6.77717       -0.99526       -0.49533
F          6.56488        1.15454       -0.65493
F          6.69049        0.21790        1.28921
C         -0.54802       -1.03274        0.55777
C         -1.88329       -0.52956        0.52248
C         -2.97795       -1.36187        0.75392
C         -4.29039       -0.87941        0.71624
C         -5.40060       -1.73070        0.95297
C         -6.70021       -1.27023        0.91889
C         -7.87885       -2.11895        1.15851
C         -7.82395       -3.49166        1.44894
F         -6.66494       -4.15959        1.53450
C         -8.96032       -4.25148        1.66715
F         -8.85065       -5.54907        1.93856
C         -9.17114       -1.53435        1.09750
C        -10.30759       -2.31860        1.32113
F        -11.52247       -1.76115        1.26219
C        -10.21998       -3.66538        1.60428
F        -11.30850       -4.39855        1.81458
C         -6.91705        0.13239        0.62988
C         -8.26316        0.65491        0.58491
C         -9.33299       -0.12768        0.80513
C         -5.84927        0.96939        0.39818
C         -4.51153        0.50857        0.43072
H         -3.59188        2.39879       -0.01762
H         -1.16256        2.78092       -0.22204
H          0.68037        3.85987        1.33982
H          0.99823        6.26895        0.82445
H          2.22827        6.94775       -1.22140
H          3.11221        5.21440       -2.76209
H          2.73768        2.80968       -2.27067
H          2.33616       -2.46022        0.69200
H          4.79574       -2.18282        0.50166
H          4.31870        2.01749       -0.31596
H         -0.38552       -2.08756        0.76309
H         -2.80676       -2.41441        0.96889
H         -5.18818       -2.76834        1.16412
H         -8.39191        1.71113        0.36558
H        -10.33832        0.27432        0.76908
H         -6.03634        2.01903        0.18297
