42
syn_S_S_tetClbenz_tetClbenz.log	Energy: -3433645.4767583
C         -3.18662       -0.90427        2.06812
C         -4.31610       -0.52279        1.34169
C         -5.63090       -0.62032        1.88153
C         -6.69806       -0.23361        1.12852
S         -8.36993       -0.29848        1.66778
C         -6.56254        0.27789       -0.21200
C         -7.87568        0.61328       -0.78129
C         -8.23070        1.13145       -2.03401
Cl        -7.02168        1.48851       -3.22577
C         -9.57221        1.37296       -2.35441
Cl        -9.99595        2.01210       -3.90412
C         -8.91257        0.34739        0.13274
C        -10.24804        0.58259       -0.17182
Cl       -11.45635        0.22656        1.01497
C        -10.58545        1.09877       -1.42209
Cl       -12.23963        1.39559       -1.81408
C         -5.30274        0.37733       -0.74358
C         -4.15674       -0.01445        0.00752
C         -2.87287        0.08740       -0.53246
C         -1.74161       -0.29292        0.19274
C         -0.43702       -0.18282       -0.37016
C          0.67280       -0.55649        0.34269
C          2.09816       -0.53602       -0.01619
C          2.74598       -0.12838       -1.19005
Cl         1.84293        0.48023       -2.54057
C          4.13986       -0.20238       -1.30082
Cl         4.92561        0.30499       -2.75488
C          2.89789       -1.01817        1.03696
C          4.28208       -1.09751        0.94052
Cl         5.18513       -1.70422        2.28653
C          4.91214       -0.68817       -0.23377
Cl         6.63013       -0.78060       -0.36736
C          0.48558       -1.06500        1.67819
S          1.99828       -1.50111        2.46002
C         -0.74223       -1.18695        2.25529
C         -1.90408       -0.80179        1.52631
H         -3.30842       -1.28928        3.07766
H         -5.76400       -1.00262        2.88936
H         -5.14415        0.75472       -1.74394
H         -2.75103        0.47253       -1.54214
H         -0.35370        0.20460       -1.37580
H         -0.85244       -1.57367        3.26420
