52
syn_S_NPh_p-CNbenz_2-OMe.log	Energy: -1089669.8020868
C         -3.58567        1.10828        0.14842
C         -4.61891        0.16868        0.07673
C         -5.98676        0.56747        0.10915
C         -6.94602       -0.39930        0.02980
N         -8.33393       -0.28124        0.05512
C         -9.06970        0.93146        0.08581
C         -8.81230        1.91576       -0.86818
C         -9.51202        3.11692       -0.82635
C        -10.48136        3.32972        0.14993
C        -10.74348        2.33841        1.09209
C        -10.03328        1.14346        1.07063
C         -6.63629       -1.80469       -0.06788
C         -7.89217       -2.51099       -0.10272
C         -8.86661       -1.56118       -0.02630
O        -10.19721       -1.64708       -0.02784
C        -10.71729       -2.95972       -0.15073
C         -5.32628       -2.20297       -0.09807
C         -4.28577       -1.23224       -0.03114
C         -2.93776       -1.60225       -0.06228
C         -1.90900       -0.66212        0.00863
C         -0.53741       -1.04798       -0.02321
C          0.45226       -0.10825        0.04840
C          1.89950       -0.29767        0.03209
C          2.61371       -1.48784       -0.06064
C          4.00916       -1.45360       -0.05961
C          4.74991       -2.68004       -0.15541
N          5.34776       -3.67039       -0.23300
C          2.59937        0.91876        0.12533
C          3.99200        0.95825        0.12672
C          4.69540       -0.23231        0.03390
C          0.10476        1.28186        0.15655
S          1.53709        2.31550        0.23460
C         -1.19111        1.69871        0.19091
C         -2.24242        0.73430        0.11761
H         -3.83857        2.16313        0.23123
H         -6.24115        1.61880        0.20040
H         -8.06936        1.73157       -1.63786
H         -9.30648        3.88287       -1.56784
H        -11.03149        4.26523        0.17635
H        -11.49700        2.49947        1.85693
H        -10.22066        0.37209        1.80933
H         -8.03215       -3.57843       -0.17470
H        -11.80190       -2.85669       -0.14839
H        -10.39889       -3.58229        0.69326
H        -10.38693       -3.41880       -1.08933
H         -5.06465       -3.25534       -0.16758
H         -2.68376       -2.65706       -0.14352
H         -0.29479       -2.10469       -0.10535
H          2.09825       -2.44002       -0.13357
H          4.52200        1.90214        0.19907
H          5.77994       -0.22759        0.03298
H         -1.44552        2.75160        0.27330
