54
syn_S_NPh_benz_p-CNbenz.log	Energy: -1114214.7927730
C         -3.71034       -1.96323        0.81898
C         -4.68489       -1.12222        0.27439
C         -6.07587       -1.41021        0.41006
C         -6.97549       -0.54605       -0.14202
N         -8.37163       -0.60795       -0.15807
C         -9.15384       -1.62440        0.44770
C         -9.04633       -1.85659        1.81865
C         -9.80694       -2.86042        2.40836
C        -10.68688       -3.61740        1.63884
C        -10.79742       -3.37601        0.27204
C        -10.02436       -2.38814       -0.32908
C         -6.56890        0.62949       -0.86357
C         -7.79137        1.27533       -1.31494
C         -8.03999        2.43098       -2.03769
C         -9.36727        2.78903       -2.29731
C         -9.65074        3.97935       -3.04579
N         -9.87997        4.94155       -3.65146
C         -8.86586        0.48112       -0.85937
C        -10.19179        0.83606       -1.10418
C        -10.42844        1.99437       -1.82767
C         -5.24424        0.92401       -1.00599
C         -4.26276        0.05895       -0.43854
C         -2.89732        0.32785       -0.56136
C         -1.92695       -0.51351       -0.01531
C         -0.53470       -0.23532       -0.14316
C          0.39674       -1.07489        0.39965
C          1.85266       -0.96730        0.37786
C          2.64257        0.02465       -0.20565
C          4.02559       -0.05454       -0.11550
C          2.47496       -2.03183        1.04843
C          3.86060       -2.11844        1.14318
C          4.63005       -1.12090        0.55558
C         -0.03689       -2.25046        1.10647
S          1.32395       -3.18886        1.72231
C         -1.35646       -2.55665        1.25371
C         -2.34659       -1.69307        0.69462
H         -4.02473       -2.85550        1.35568
H         -6.39229       -2.30321        0.93970
H         -8.37168       -1.24661        2.41126
H         -9.72035       -3.04241        3.47506
H        -11.28501       -4.39483        2.10370
H        -11.47756       -3.96732       -0.33309
H        -10.08413       -2.20760       -1.39802
H         -7.22759        3.05427       -2.39697
H        -11.01347        0.23082       -0.73781
H        -11.44806        2.30007       -2.03671
H         -4.92084        1.80761       -1.55004
H         -2.58197        1.21928       -1.09937
H         -0.22864        0.65823       -0.68147
H          2.17574        0.85485       -0.72802
H          4.64078        0.71623       -0.56888
H          4.33199       -2.94593        1.66396
H          5.71249       -1.17385        0.62053
H         -1.67419       -3.44689        1.78892
