48
syn_S_O_p-CF3benz_p-CF3benz.log	Energy: -1346753.9119009
C         -3.10654       -1.51965        2.02330
C         -4.09643       -0.81757        1.33310
C         -5.46836       -0.88100        1.73326
C         -6.36653       -0.16963        1.00880
O         -7.71766       -0.11548        1.24934
C         -6.01670        0.63288       -0.12341
C         -7.27549        1.20267       -0.57853
C         -7.65033        2.05387       -1.61146
C         -8.99611        2.38201       -1.73843
C         -9.44799        3.33303       -2.81148
F         -8.51161        3.51123       -3.75772
F        -10.56214        2.89441       -3.42403
F         -9.73785        4.54673       -2.30746
C         -8.24839        0.70567        0.29601
C         -9.59273        1.02149        0.18617
C         -9.95331        1.87247       -0.85074
C         -4.71576        0.71073       -0.52532
C         -3.71769       -0.01476        0.19439
C         -2.37390        0.03569       -0.18185
C         -1.38594       -0.66736        0.51033
C         -0.01627       -0.61184        0.12139
C          0.93185       -1.30948        0.81553
C          2.37021       -1.38459        0.58019
C          3.11789       -0.75497       -0.41302
C          4.49052       -0.95382       -0.46421
C          5.30457       -0.32654       -1.56189
F          5.54617       -1.19855       -2.55771
F          4.68443        0.73272       -2.10810
F          6.50088        0.09238       -1.11426
C          3.02031       -2.21004        1.51104
C          4.39742       -2.41200        1.46233
C          5.12814       -1.77882        0.46844
C          0.54100       -2.10526        1.94689
S          1.92058       -2.91699        2.69085
C         -0.75646       -2.18826        2.35493
C         -1.76323       -1.46762        1.64471
H         -3.39034       -2.12487        2.88102
H         -5.76943       -1.47924        2.58631
H         -6.91720        2.45074       -2.30456
H        -10.32380        0.61833        0.87701
H        -10.99562        2.14442       -0.98005
H         -4.42293        1.31257       -1.38110
H         -2.08887        0.64073       -1.03967
H          0.25917       -0.00453       -0.73712
H          2.63466       -0.10973       -1.13886
H          4.89382       -3.04854        2.18726
H          6.20261       -1.91854        0.41686
H         -1.04335       -2.79201        3.21100
