33
syn_C_O_3-Cl_2-Cl.log	Energy: -1106532.3748471
C          1.00519       -1.62717        0.18625
C         -0.13630       -0.81691        0.07936
C         -1.44669       -1.37045        0.16241
C         -2.49205       -0.50970        0.04828
O         -3.82121       -0.84928        0.10183
C         -2.35748        0.89598       -0.14700
C         -3.71306        1.40176       -0.21008
C         -4.49884        0.31943       -0.05647
Cl        -6.20121        0.18073       -0.02861
C         -1.10449        1.44601       -0.22934
C          0.03375        0.59959       -0.11777
C          1.33804        1.11671       -0.19603
C          2.46172        0.30988       -0.08974
C          3.79355        0.85840       -0.17258
C          4.84253        0.01929       -0.06117
C          6.32615        0.18925       -0.09133
Cl         7.06454        1.76261       -0.31370
C          6.97841       -1.05428       -0.65430
C          4.67949       -1.39605        0.13675
C          6.07877       -1.92330        0.20437
C          6.98426       -0.85355        0.78526
C          3.45294       -1.95474        0.22038
C          2.29024       -1.10777        0.10801
H          0.87509       -2.69690        0.33542
H         -1.59480       -2.43466        0.31057
H         -4.04309        2.41964       -0.34919
H         -0.96487        2.51288       -0.37773
H          1.46797        2.18650       -0.34505
H          3.92609        1.92657       -0.32167
H          7.71464       -1.22726       -1.42474
H          6.32017       -2.97012        0.34934
H          7.72660       -0.80978        1.56791
H          3.31514       -3.02257        0.36983
