46
syn_C_S_p-OMebenz_2-CF3.log	Energy: -1112145.0345038
C          1.10176       -1.55133        1.67206
C          0.16660       -0.94328        0.83321
C         -1.22024       -0.90564        1.16535
C         -2.09499       -0.29893        0.31276
S         -3.83412       -0.13723        0.52335
C         -1.66052        0.30798       -0.91763
C         -2.77146        0.88310       -1.64193
C         -3.94703        0.72129       -1.00634
C         -5.27815        1.19693       -1.49495
F         -6.12950        0.17579       -1.68226
F         -5.85619        2.03328       -0.61811
F         -5.15746        1.84669       -2.66113
C         -0.33290        0.28277       -1.25605
C          0.61681       -0.33911       -0.39816
C          1.97602       -0.37938       -0.71783
C          2.91026       -0.98858        0.12330
C          4.29292       -1.03200       -0.19699
C          5.22023       -1.62838        0.62414
C          6.65629       -1.67933        0.30208
C          7.18245       -1.12395       -0.86707
C          8.54202       -1.18333       -1.15093
O          8.92321       -0.60565       -2.31846
C         10.29059       -0.63610       -2.66036
C          7.54043       -2.31368        1.20775
C          8.90622       -2.36342        0.90447
C          9.41867       -1.81048       -0.25573
C          4.76302       -2.23135        1.85805
C          5.72333       -2.86339        2.73721
C          7.03239       -2.90075        2.42855
C          3.42708       -2.20039        2.18656
C          2.46129       -1.58927        1.34911
H          0.76494       -2.00697        2.60046
H         -1.55452       -1.36153        2.09277
H         -2.67180        1.39023       -2.59359
H          0.00785        0.73748       -2.18258
H          2.31481        0.07587       -1.64592
H          4.59742       -0.56894       -1.13017
H          6.55398       -0.62667       -1.59654
H         10.90402       -0.10872       -1.91851
H         10.37120       -0.12507       -3.62039
H         10.65708       -1.66514       -2.76772
H          9.58105       -2.85144        1.60309
H         10.48230       -1.86963       -0.45436
H          5.35588       -3.30863        3.65767
H          7.74313       -3.37851        3.09803
H          3.09691       -2.65740        3.11681
