53
syn_C_NPh_3-F_p-CF3benz.log	Energy: -1032371.6743765
C         -3.49901        1.19880       -0.08686
C         -2.18693        0.74070       -0.06654
C         -1.08139        1.64576        0.01544
C          0.17997        1.13325        0.03544
N          1.40767        1.79547        0.09794
C          1.57823        3.19990        0.18313
C          0.99973        3.90695        1.23727
C          1.16096        5.28615        1.31263
C          1.91358        5.95815        0.35275
C          2.49725        5.24744       -0.69265
C          2.32232        3.87079       -0.78718
C          0.43785       -0.28454       -0.03944
C          1.88431       -0.43846       -0.01865
C          2.71872       -1.54690       -0.05153
C          4.09518       -1.35071        0.00680
C          5.02958       -2.52149       -0.08716
F          4.43233       -3.67447        0.26101
F          5.50027       -2.68808       -1.33866
F          6.10396       -2.36877        0.70874
C          2.43267        0.85650        0.06626
C          3.80909        1.05939        0.13567
C          4.62898       -0.05969        0.10216
C         -0.59549       -1.16734       -0.11854
C         -1.94271       -0.68608       -0.13076
C         -3.02128       -1.55859       -0.20772
C         -4.34825       -1.09809       -0.22681
C         -5.44371       -1.98185       -0.30460
C         -6.74172       -1.50578       -0.32289
C         -7.87850       -2.37562       -0.40098
F         -7.62911       -3.69460       -0.45617
C         -9.15420       -1.92435       -0.42017
C         -6.99994       -0.08692       -0.26273
C         -8.36222        0.36954       -0.28458
C         -9.39187       -0.51398       -0.36012
C         -5.92559        0.78336       -0.18613
C         -4.59345        0.32077       -0.16557
H         -3.68734        2.26907       -0.04080
H         -1.26522        2.71468        0.05516
H          0.43262        3.36988        1.99112
H          0.70735        5.83497        2.13216
H          2.04440        7.03370        0.41910
H          3.08012        5.76700       -1.44688
H          2.75230        3.31038       -1.61167
H          2.30833       -2.54912       -0.11350
H          4.22869        2.05552        0.22257
H          5.70491        0.06730        0.15994
H         -0.41670       -2.23775       -0.17758
H         -2.83565       -2.62934       -0.25552
H         -5.26226       -3.05096       -0.35071
H         -9.97548       -2.62933       -0.48031
H         -8.55059        1.43829       -0.23942
H        -10.41754       -0.15910       -0.37612
H         -6.11031        1.85423       -0.14052
