44
syn_O_O_diOMe_benz.log	Energy: -768487.0518515
C         -3.04014        1.23046        0.73983
C         -1.73425        0.75444        0.60999
C         -0.64084        1.38369        1.28463
C          0.59610        0.85747        1.10634
O          1.75161        1.33166        1.67467
C          0.85997       -0.28506        0.28502
C          2.29676       -0.49362        0.38567
C          3.19976       -1.40968       -0.14700
C          4.54500       -1.28936        0.18767
C          2.76139        0.51572        1.23665
C          4.09398        0.65521        1.58344
C          4.98272       -0.27036        1.04091
C         -0.16593       -0.90227       -0.36903
C         -1.49493       -0.39803       -0.22440
C         -2.57470       -0.99826       -0.87562
C         -3.88238       -0.52275       -0.74852
C         -4.97276       -1.15138       -1.42380
C         -6.23251       -0.64367       -1.26777
C         -7.55033       -0.98209       -1.75953
O         -7.86148       -2.01862       -2.59258
C         -7.48490       -1.78303       -3.94115
C         -8.40263       -0.07649       -1.20592
O         -9.70911        0.13605       -1.24849
C        -10.47890       -0.76226       -2.04003
C         -6.43927        0.49038       -0.42603
O         -7.77179        0.81604       -0.39483
C         -5.45058        1.13129        0.24252
C         -4.11978        0.62915        0.08914
H         -3.22334        2.09810        1.36965
H         -0.80544        2.25084        1.91523
H          2.86079       -2.20085       -0.80899
H          5.26487       -1.99364       -0.21695
H          4.42111        1.44879        2.24565
H          6.03754       -0.19722        1.28735
H          0.00700       -1.77113       -0.99835
H         -2.39130       -1.86735       -1.50395
H         -4.78882       -2.02666       -2.04013
H         -7.71611       -2.69536       -4.49416
H         -6.41350       -1.56511       -4.02473
H         -8.04915       -0.94124       -4.36465
H        -11.51523       -0.45685       -1.89885
H        -10.33733       -1.79397       -1.70921
H        -10.20850       -0.67833       -3.09750
H         -5.65170        1.98940        0.87494
