59
syn_O_NPh_diOMe_p-OMebenz.log	Energy: -972810.3688566
C         -3.10751        1.70372       -0.38650
C         -1.82160        1.16478       -0.29080
C         -0.69194        1.98052        0.01732
C          0.53760        1.39224        0.10304
N          1.78150        1.96151        0.37126
C          2.02008        3.32788        0.64072
C          1.32507        3.96976        1.66726
C          1.55515        5.31726        1.92218
C          2.49247        6.02451        1.17362
C          3.19264        5.37955        0.15751
C          2.95140        4.03811       -0.11887
C          0.72472       -0.01699       -0.12737
C          2.14953       -0.27459        0.01639
C          2.90963       -1.43016       -0.07523
C          4.28675       -1.35371        0.14041
O          4.96497       -2.53108        0.02798
C          6.35429       -2.51678        0.24917
C          2.75861        0.95866        0.31849
C          4.12336        1.03971        0.54745
C          4.88417       -0.12649        0.45307
C         -0.34151       -0.81431       -0.42397
C         -1.64861       -0.24963       -0.51077
C         -2.76465       -1.03410       -0.80973
C         -4.05042       -0.49680       -0.90579
C         -5.18001       -1.31547       -1.21338
C         -6.41588       -0.73799       -1.30032
C         -7.75784       -1.20473       -1.57661
O         -8.12792       -2.49250       -1.84258
C         -7.76814       -2.91726       -3.14853
C         -8.56163       -0.10976       -1.49432
O         -9.86080        0.11783       -1.62349
C        -10.67980       -1.00607       -1.92468
C         -6.55963        0.66309       -1.06872
O         -7.87873        1.02570       -1.18331
C         -5.53186        1.49412       -0.77178
C         -4.22368        0.92016       -0.68535
H         -3.24378        2.77038       -0.22171
H         -0.82702        3.04647        0.17135
H          0.61405        3.40495        2.26199
H          1.00895        5.81212        2.71955
H          2.67594        7.07420        1.38090
H          3.92026        5.92605       -0.43491
H          3.47301        3.53511       -0.92725
H          2.46406       -2.39259       -0.30509
H          6.69207       -3.54529        0.11439
H          6.59980       -2.18808        1.26802
H          6.87350       -1.87047       -0.47138
H          4.59875        1.98102        0.80183
H          5.95120       -0.06127        0.63103
H         -0.21090       -1.87878       -0.60188
H         -2.62750       -2.10098       -0.97410
H         -5.04339       -2.38275       -1.36265
H         -8.04554       -3.97052       -3.22239
H         -6.69082       -2.80879       -3.32154
H         -8.30678       -2.33900       -3.91139
H        -11.70106       -0.62616       -1.93401
H        -10.56996       -1.78476       -1.16600
H        -10.42878       -1.41799       -2.90756
H         -5.68588        2.55423       -0.60044
