47
syn_C_O_diOMe_benz.log	Energy: -769871.9354366
C         -3.08074        0.86006        1.15304
C         -1.78289        0.46653        0.85621
C         -0.66564        0.93071        1.62809
C          0.56725        0.49926        1.27473
O          1.73954        0.84104        1.90016
C          0.81440       -0.39198        0.17604
C          2.25752       -0.58139        0.16723
C          3.15032       -1.30783       -0.61564
C          4.50681       -1.24227       -0.31204
C          2.74218        0.18926        1.22988
C          4.08574        0.27003        1.55074
C          4.96457       -0.46364        0.75637
C         -0.22505       -0.84882       -0.57477
C         -1.55947       -0.43345       -0.25842
C         -2.64721       -0.87734       -0.99992
C         -3.96242       -0.48091       -0.70307
C         -5.06609       -0.93274       -1.45479
C         -6.35575       -0.53466       -1.14835
C         -7.48622       -0.98814       -1.91744
O         -7.23759       -1.83184       -2.96902
C         -7.45344       -1.23822       -4.24411
C         -8.75303       -0.59268       -1.58853
O         -9.86069       -0.98461       -2.29142
C        -10.12225       -2.38266       -2.27760
C         -6.58367        0.36223       -0.04098
C         -7.92976        0.76890        0.24686
C         -8.96741        0.30611       -0.49529
C         -5.50346        0.80855        0.70203
C         -4.18409        0.41228        0.40486
H         -3.25222        1.53465        1.98886
H         -0.81593        1.60426        2.46489
H          2.79534       -1.91237       -1.44480
H          5.21941       -1.80124       -0.91003
H          4.42880        0.87665        2.38111
H          6.02769       -0.42850        0.97374
H         -0.06530       -1.52397       -1.41100
H         -2.47916       -1.55325       -1.83553
H         -4.90616       -1.61302       -2.28522
H         -8.50367       -0.95719       -4.37587
H         -7.17592       -1.99141       -4.98382
H         -6.81921       -0.35208       -4.36763
H        -11.06898       -2.51863       -2.80335
H        -10.22198       -2.74497       -1.24720
H         -9.33047       -2.94445       -2.78214
H         -8.10317        1.44996        1.07520
H         -9.99186        0.59873       -0.28872
H         -5.67461        1.48321        1.53802
