48
syn_C_S_m-CF3benz_tetClbenz.log	Energy: -2290243.8067737
C         -3.41805        0.91131       -1.03958
C         -2.09022        0.58800       -0.77225
C         -1.00416        1.24087       -1.42787
C          0.27484        0.88633       -1.12812
S          1.70388        1.60672       -1.85748
C          0.59560       -0.13652       -0.16236
C          2.05099       -0.30704       -0.04264
C          2.81404       -1.16895        0.75639
Cl         2.05117       -2.28594        1.84288
C          4.21307       -1.14969        0.69704
Cl         5.14158       -2.21950        1.68886
C          2.74172        0.57075       -0.89948
C          4.12939        0.60058       -0.96822
Cl         4.89380        1.71373       -2.05089
C          4.87474       -0.26323       -0.16686
Cl         6.59880       -0.23689       -0.24241
C         -0.43654       -0.77278        0.47524
C         -1.79425       -0.43568        0.19494
C         -2.84403       -1.08302        0.84474
C         -4.17978       -0.76056        0.57900
C         -5.25201       -1.41452        1.23705
C         -6.56912       -1.10428        0.98348
C         -7.69152       -1.77200        1.65725
C         -7.50825       -2.78297        2.61813
C         -8.58009       -3.39177        3.23658
C         -9.01284       -1.39042        1.33634
C        -10.09653       -2.01806        1.97204
C         -9.88665       -3.00606        2.91115
C        -11.03834       -3.70464        3.57837
F        -10.88649       -3.73253        4.91450
F        -12.21486       -3.11342        3.31876
F        -11.13589       -4.98404        3.17381
C         -6.85807       -0.07487        0.01059
C         -8.23486        0.26642       -0.27025
C         -9.25201       -0.35375        0.35521
C         -5.83018        0.57158       -0.63935
C         -4.47284        0.26146       -0.38666
H         -3.64235        1.68481       -1.77031
H         -1.21552        2.01509       -2.15976
H         -0.25215       -1.54622        1.20739
H         -2.61954       -1.85654        1.57570
H         -4.99095       -2.18080        1.95976
H         -6.50941       -3.10212        2.89280
H         -8.41269       -4.16657        3.97762
H        -11.10696       -1.71462        1.71789
H         -8.42771        1.04303       -1.00521
H        -10.28197       -0.08734        0.13479
H         -6.06353        1.34390       -1.36870
