47
syn_C_O_diOMe_tetClbenz.log	Energy: -1923424.1038128
C         -3.05596        0.90210        1.17713
C         -1.75889        0.50620        0.88157
C         -0.63908        0.98178        1.64176
C          0.58891        0.54430        1.28581
O          1.76530        0.90016        1.90697
C          0.83877       -0.36075        0.20097
C          2.28437       -0.54044        0.19888
C          3.19371       -1.26594       -0.56215
Cl         2.62158       -2.24777       -1.86811
C          4.55874       -1.19160       -0.26086
Cl         5.69819       -2.09078       -1.20165
C          2.75731        0.24943        1.25136
C          4.09952        0.34663        1.57733
Cl         4.58592        1.34831        2.89427
C          5.00687       -0.38804        0.80472
Cl         6.69149       -0.29912        1.17271
C         -0.20532       -0.82978       -0.53987
C         -1.53596       -0.40858       -0.21987
C         -2.62425       -0.86633       -0.95314
C         -3.93865       -0.46804       -0.65805
C         -5.04270       -0.93360       -1.40100
C         -6.33217       -0.53389       -1.09706
C         -7.46270       -1.00235       -1.85725
O         -7.21204       -1.86008       -2.89582
C         -7.44137       -1.29130       -4.18054
C         -8.72991       -0.60610       -1.53001
O         -9.83904       -1.01176       -2.22041
C        -10.09234       -2.41183       -2.19519
C         -6.55926        0.37894       -0.00234
C         -7.90554        0.78709        0.28238
C         -8.94303        0.30971       -0.45039
C         -5.47893        0.83871        0.73204
C         -4.15949        0.44080        0.43760
H         -3.22655        1.58819        2.00346
H         -0.78150        1.66673        2.47029
H         -0.05242       -1.51494       -1.36592
H         -2.45617       -1.55366       -1.77906
H         -4.88312       -1.62539       -2.22181
H         -8.49496       -1.02299       -4.31110
H         -7.16052       -2.05509       -4.90781
H         -6.81674       -0.40138       -4.32336
H        -11.04368       -2.55580       -2.71001
H        -10.17907       -2.76762       -1.16152
H         -9.30286       -2.97245       -2.70439
H         -8.07904        1.48033        1.10038
H         -9.96780        0.60252       -0.24582
H         -5.64988        1.52512        1.55825
