55
syn_C_NPh_m-CNbenz_3-OMe.log	Energy: -888370.8963412
C         -2.40503        1.27989        0.61718
C         -3.61863        0.59125        0.70971
C         -4.85609        1.28668        0.81865
C         -6.01342        0.55878        0.89817
N         -7.33332        0.96186        1.02725
C         -7.81614        2.28440        1.09881
C         -7.36968        3.24955        0.19291
C         -7.85551        4.54983        0.27166
C         -8.80443        4.89256        1.23114
C         -9.26095        3.92435        2.12126
C         -8.76355        2.62724        2.06594
C         -5.99855       -0.88088        0.90860
C         -7.37218       -1.29824        1.06141
O         -7.71422       -2.60302        1.09498
C         -9.09461       -2.85160        1.23814
C         -8.14021       -0.18178        1.13850
C         -4.82444       -1.57280        0.80328
C         -3.60009       -0.85609        0.69312
C         -2.37559       -1.51963        0.58019
C         -1.16729       -0.82611        0.48528
C          0.07752       -1.49833        0.37007
C          1.27278       -0.82362        0.27711
C          2.56873       -1.50539        0.15692
C          2.68918       -2.90630        0.12647
C          3.91579       -3.52698        0.01298
C          3.75005       -0.73181        0.06721
C          4.99356       -1.36689       -0.04783
C          5.08372       -2.75161       -0.07539
C          6.36501       -3.38902       -0.19379
N          7.39818       -3.90633       -0.28935
C          1.24995        0.62311        0.29900
C          2.49647        1.35078        0.20306
C          3.67649        0.71449        0.09382
C          0.05439        1.29400        0.40995
C         -1.18443        0.61131        0.50586
H         -2.41243        2.36757        0.63157
H         -4.85788        2.37117        0.84787
H         -6.66194        2.97107       -0.58094
H         -7.50211        5.29440       -0.43527
H         -9.18710        5.90690        1.28354
H         -9.99771        4.18198        2.87613
H         -9.09211        1.87981        2.78174
H         -9.21802       -3.93473        1.25448
H         -9.65939       -2.42962        0.39556
H         -9.47541       -2.42375        2.17577
H         -9.21096       -0.07062        1.22080
H         -4.81746       -2.65861        0.81314
H         -2.36595       -2.60745        0.56739
H          0.04892       -2.58335        0.35803
H          1.80599       -3.53104        0.19252
H          3.98508       -4.60916       -0.00859
H          5.89589       -0.76656       -0.11606
H          2.45425        2.43647        0.22183
H          4.60469        1.27451        0.02274
H          0.05369        2.38173        0.42505
