54
syn_O_NPh_p-CF3benz_2-OMe.log	Energy: -1040575.8853515
C         -3.54991        0.94263        0.15576
C         -4.62151        0.04664        0.08203
C         -5.97176        0.50135        0.11578
C         -6.97037       -0.42480        0.03447
N         -8.35291       -0.24950        0.06045
C         -9.03791        0.99243        0.08130
C         -8.73137        1.96243       -0.87302
C         -9.38101        3.19162       -0.84146
C        -10.34998        3.44774        0.12471
C        -10.66176        2.47108        1.06701
C        -10.00137        1.24771        1.05603
C         -6.71908       -1.84122       -0.06550
C         -8.00366       -2.49530       -0.10092
C         -8.93783       -1.50650       -0.02315
O        -10.27149       -1.53783       -0.02536
C        -10.84386       -2.82779       -0.15181
C         -5.42664       -2.29284       -0.09715
C         -4.34696       -1.36559       -0.02943
C         -3.01497       -1.78908       -0.06335
C         -1.94589       -0.89463        0.00853
C         -0.59230       -1.35015       -0.02848
C          0.42194       -0.44102        0.04598
C          1.87533       -0.50974        0.03954
C          2.80895       -1.53522       -0.04209
C          4.16052       -1.20256       -0.01032
C          5.20301       -2.27517       -0.15324
F          4.72395       -3.49152        0.15846
F          5.67152       -2.34958       -1.41352
F          6.26581       -2.04625        0.63916
C          2.31305        0.81609        0.14936
C          3.65277        1.16623        0.18248
C          4.57553        0.13050        0.09985
C          0.12180        0.95326        0.15993
O          1.27709        1.70010        0.22205
C         -1.13792        1.45035        0.19972
C         -2.22202        0.51822        0.12301
H         -3.76024        2.00650        0.24181
H         -6.18214        1.56220        0.20932
H         -7.98964        1.74544       -1.63521
H         -9.13670        3.94590       -1.58318
H        -10.86108        4.40534        0.14328
H        -11.41522        2.66553        1.82417
H        -10.22754        0.48731        1.79522
H         -8.18778       -3.55598       -0.17401
H        -11.92352       -2.68139       -0.14996
H        -10.55144       -3.46498        0.69075
H        -10.53153       -3.29781       -1.09126
H         -5.20840       -3.35502       -0.16875
H         -2.80467       -2.85330       -0.14804
H         -0.39187       -2.41468       -0.11522
H          2.49678       -2.57042       -0.12400
H          3.96093        2.20131        0.27238
H          5.63610        0.35670        0.12734
H         -1.32871        2.51464        0.28671
