54
syn_S_NPh_3-OMe_p-CF3benz.log	Energy: -1243249.3474953
C         -3.30554        1.77035       -0.37501
C         -2.03271        1.20045       -0.31591
C         -0.87313        1.99223       -0.05515
C          0.34105        1.37290       -0.00589
N          1.60871        1.91621        0.21679
C          1.88221        3.28281        0.47282
C          1.27173        3.92303        1.55141
C          1.53473        5.26677        1.79435
C          2.41968        5.96738        0.97865
C          3.03437        5.32223       -0.09120
C          2.75944        3.98433       -0.35410
C          0.49075       -0.04219       -0.22360
C          1.91343       -0.32442       -0.12070
C          2.65686       -1.49212       -0.22193
C          4.03552       -1.42564       -0.04601
C          4.87761       -2.65704       -0.20920
F          4.16570       -3.78420       -0.03460
F          5.42753       -2.72965       -1.43731
F          5.89733       -2.68581        0.66872
C          2.55531        0.90052        0.14928
C          3.93410        0.97210        0.33748
C          4.66191       -0.20455        0.23342
C         -0.60219       -0.81797       -0.47505
C         -1.89783       -0.22194       -0.52507
C         -3.03921       -0.98357       -0.77675
C         -4.31355       -0.41214       -0.83440
C         -5.47301       -1.19544       -1.09150
C         -6.70268       -0.59811       -1.14058
C         -7.99543       -1.21328       -1.38688
O         -8.02756       -2.54501       -1.59897
C         -9.30241       -3.10209       -1.83523
C         -9.02202       -0.33450       -1.36856
C         -6.83266        0.81455       -0.93466
S         -8.51313        1.32057       -1.05070
C         -5.74484        1.60126       -0.68540
C         -4.44999        1.00769       -0.62789
H         -3.41069        2.84181       -0.21962
H         -0.97529        3.06260        0.09321
H          0.60002        3.36160        2.19328
H          1.05591        5.76368        2.63246
H          2.62925        7.01402        1.17598
H          3.72059        5.86490       -0.73402
H          3.21396        3.47870       -1.20055
H          2.17365       -2.44157       -0.42631
H          4.42403        1.91188        0.56700
H          5.73659       -0.18005        0.38024
H         -0.50435       -1.88731       -0.64346
H         -2.93504       -2.05500       -0.93376
H         -5.37843       -2.26595       -1.24819
H         -9.14951       -4.17093       -1.98578
H         -9.76115       -2.66554       -2.73197
H         -9.96588       -2.94231       -0.97531
H        -10.07233       -0.53649       -1.52213
H         -5.84451        2.67174       -0.52978
