51
syn_C_NPh_C_m-CNbenz.log	Energy: -816535.4752362
C         -3.48082        1.26737       -0.07226
C         -2.17551        0.79051       -0.06015
C         -1.05582        1.67975        0.00277
C          0.19817        1.14919        0.01505
N          1.43595        1.79298        0.05885
C          1.63175        3.19511        0.13004
C          1.07665        3.92064        1.18414
C          1.26415        5.29709        1.24683
C          2.02033        5.94728        0.27481
C          2.58062        5.21799       -0.77044
C          2.37860        3.84427       -0.85282
C          0.43256       -0.27308       -0.04853
C          1.87529       -0.45258       -0.03916
C          2.69318       -1.57665       -0.07204
C          4.07152       -1.41421       -0.03458
C          2.44508        0.83598        0.02705
C          3.82007        1.02028        0.07730
C          4.62263       -0.12491        0.04244
C          6.05099        0.02644        0.08719
N          7.20337        0.14840        0.12140
C         -0.61508       -1.14157       -0.10939
C         -1.95436       -0.64056       -0.11356
C         -3.04673       -1.49786       -0.17241
C         -4.36688       -1.01830       -0.18329
C         -5.47915       -1.88287       -0.24276
C         -6.77622       -1.39860       -0.25388
C         -7.91681       -2.26995       -0.31401
C         -9.17959       -1.76895       -0.32383
C         -6.99955        0.02718       -0.20368
C         -8.35324        0.50818       -0.21659
C         -9.40138       -0.35431       -0.27428
C         -5.91438        0.88553       -0.14496
C         -4.58886        0.40492       -0.13265
H         -3.65325        2.34065       -0.03424
H         -1.22343        2.75157        0.03462
H          0.50754        3.40004        1.94798
H          0.82917        5.86062        2.06644
H          2.17284        7.02044        0.33206
H          3.16710        5.72030       -1.53338
H          2.79033        3.27041       -1.67741
H          2.26133       -2.57127       -0.12370
H          4.73049       -2.27454       -0.06116
H          4.26439        2.00660        0.14565
H         -0.45285       -2.21512       -0.15968
H         -2.87655       -2.57165       -0.21209
H         -5.30846       -2.95669       -0.28072
H         -7.74481       -3.34255       -0.35154
H        -10.03334       -2.43825       -0.36944
H         -8.51936        1.58167       -0.17908
H        -10.41955        0.02294       -0.28345
H         -6.08393        1.95946       -0.10732
