35
syn_C_S_C_diCN.log	Energy: -848194.7112542
C         -2.40652        0.84596       -1.01975
C         -3.54978        0.74299       -0.23476
C         -4.80783        1.25584       -0.67866
C         -5.89902        1.13068        0.12637
S         -7.53450        1.68545       -0.21680
C         -5.81929        0.49509        1.41374
C         -7.11027        0.48749        2.07289
C         -7.31324       -0.08239        3.36349
N         -7.42785       -0.55856        4.41407
C         -8.08959        1.07722        1.32933
C         -9.45240        1.22176        1.70613
N        -10.56706        1.34721        1.99911
C         -4.62932       -0.00554        1.86630
C         -3.46078        0.10185        1.05969
C         -2.23409       -0.39689        1.48983
C         -1.07942       -0.29464        0.70065
C          0.16728       -0.79780        1.13009
C          1.30123       -0.69239        0.34469
C          2.57518       -1.20124        0.77283
C          3.67370       -1.08513       -0.01713
C          1.21286       -0.05239       -0.94800
C          2.40353        0.04569       -1.74643
C          3.58609       -0.45051       -1.29926
C         -0.00395        0.44509       -1.38052
C         -1.16792        0.34440       -0.58983
H         -2.47085        1.32723       -1.99280
H         -4.87011        1.73617       -1.65054
H         -4.56861       -0.48591        2.83929
H         -2.16907       -0.87821        2.46275
H          0.23216       -1.27914        2.10326
H          2.63845       -1.68183        1.74544
H          4.63077       -1.47343        0.31733
H          2.33508        0.52716       -2.71825
H          4.47864       -0.37017       -1.91216
H         -0.06989        0.92664       -2.35353
