41
syn_S_NPh_diCl_C.log	Energy: -1440352.7919994
C          0.97793       -1.57891       -0.05121
C         -0.22319       -0.86152       -0.00647
C         -1.48161       -1.52483       -0.01670
C         -2.61868       -0.76532        0.03552
N         -3.95649       -1.14414        0.02146
C         -4.46492       -2.46290       -0.01553
C         -3.97598       -3.43032        0.86407
C         -4.48810       -4.72227        0.82247
C         -5.50110       -5.05063       -0.07477
C         -5.99589       -4.07927       -0.94050
C         -5.47383       -2.79047       -0.92200
C         -2.58663        0.67558        0.07114
C         -3.96053        1.11921        0.07187
C         -4.73373        0.00769        0.03666
C         -1.38142        1.32830        0.08304
C         -0.17140        0.58162        0.05081
C          1.07665        1.21354        0.06402
C          2.27167        0.49534        0.02149
C          3.53668        1.14956        0.03535
C          4.68971        0.41581       -0.00862
C          6.06577        0.87316       -0.00460
Cl         6.47985        2.54585        0.06165
C          6.96220       -0.13379       -0.05741
Cl         8.67016        0.00794       -0.07060
C          4.62729       -1.01905       -0.06895
S          6.23727       -1.73460       -0.11717
C          3.43894       -1.68541       -0.08417
C          2.21939       -0.94463       -0.03902
H          0.94014       -2.66513       -0.09662
H         -1.51741       -2.60799       -0.07489
H         -3.21127       -3.16053        1.58524
H         -4.10337       -5.47130        1.50785
H         -5.90324       -6.05850       -0.09861
H         -6.78218       -4.32761       -1.64679
H         -5.83272       -2.03865       -1.61841
H         -4.31062        2.14042        0.10569
H         -5.81104       -0.08578        0.04794
H         -1.33497        2.41370        0.10821
H          1.11579        2.29976        0.10769
H          3.57719        2.23414        0.08086
H          3.39868       -2.76998       -0.13016
