47
syn_C_S_p-CNbenz_p-CNbenz.log	Energy: -1040973.3343811
C         -3.43374        1.16431       -0.75114
C         -2.10651        0.77352       -0.59026
C         -1.02931        1.53035       -1.14710
C          0.25128        1.10807       -0.96284
S          1.70703        1.90241       -1.56907
C          0.55921       -0.08513       -0.21968
C          1.99878       -0.32224       -0.16456
C          2.67824       -1.36484        0.45732
C          4.07151       -1.40988        0.39260
C          4.77801       -2.48376        1.03283
N          5.34792       -3.35072        1.54985
C          2.72915        0.66648       -0.84653
C          4.11993        0.62631       -0.91422
C          4.78892       -0.41582       -0.29196
C         -0.45282       -0.82459        0.32157
C         -1.81245       -0.42451        0.15681
C         -2.86140       -1.16376        0.70054
C         -4.19528       -0.77165        0.53931
C         -5.26686       -1.51959        1.09031
C         -6.58120       -1.14145        0.93686
C         -7.70588       -1.90289        1.50033
C         -7.52136       -3.07831        2.24046
C         -8.60421       -3.77665        2.76114
C         -8.37532       -4.97766        3.51501
N         -8.19046       -5.94686        4.12359
C         -9.02771       -1.44280        1.29521
C        -10.11110       -2.16240        1.82949
C         -9.91565       -3.31650        2.55539
C         -6.86899        0.05979        0.18720
C         -8.24353        0.47369        0.01497
C         -9.26275       -0.23383        0.53689
C         -5.84241        0.79984       -0.35570
C         -4.48718        0.42128       -0.20463
H         -3.65865        2.06726       -1.31396
H         -1.25369        2.43212       -1.70923
H          2.13854       -2.14082        0.99035
H          4.67465        1.39411       -1.44298
H          5.87143       -0.46966       -0.33019
H         -0.24065       -1.72887        0.88615
H         -2.63808       -2.06707        1.26372
H         -5.00605       -2.41470        1.64588
H         -6.52776       -3.46958        2.42352
H        -11.11910       -1.79384        1.66182
H        -10.75387       -3.86864        2.96594
H         -8.43448        1.38034       -0.55264
H        -10.29015        0.09084        0.39847
H         -6.07467        1.70175       -0.91737
