42
syn_C_O_m-CF3benz_2-F.log	Energy: -899883.5607054
C          0.98000       -1.74571        0.83669
C          0.08145       -0.86705        0.23512
C         -1.33220       -1.07065        0.33188
C         -2.13053       -0.16745       -0.28298
O         -3.50750       -0.19330       -0.30209
C         -1.65962        0.96922       -1.01809
C         -2.85479        1.64044       -1.49067
C         -3.86644        0.89016       -1.02382
F         -5.16039        1.03111       -1.15030
C         -0.31473        1.18346       -1.12379
C          0.59172        0.27072       -0.49983
C          1.97229        0.45272       -0.58339
C          2.87353       -0.43041        0.02115
C          4.27710       -0.24492       -0.06413
C          5.17095       -1.10867        0.52767
C          6.62760       -0.93033        0.44817
C          7.22539        0.14117       -0.24003
C          8.59569        0.28599       -0.29859
C          7.47274       -1.86552        1.08563
C          8.86672       -1.70828        1.01844
C          9.42486       -0.64721        0.33650
C         10.91518       -0.48522        0.23205
F         11.34702       -0.71425       -1.02182
F         11.29638        0.76568        0.54819
F         11.57971       -1.32493        1.04144
C          4.65154       -2.24180        1.25984
C          5.57390       -3.16059        1.88904
C          6.90533       -2.98405        1.80788
C          3.29201       -2.43913        1.35386
C          2.36414       -1.55773        0.74945
H          0.59641       -2.60057        1.38894
H         -1.73631       -1.91640        0.87745
H         -2.93726        2.53776       -2.08277
H          0.08081        2.03321       -1.67221
H          2.35887        1.30687       -1.13509
H          4.62547        0.61782       -0.62294
H          6.60998        0.88040       -0.73988
H          9.03228        1.12364       -0.83271
H          9.50493       -2.43287        1.51380
H          5.15977       -4.00463        2.43389
H          7.58707       -3.68228        2.28551
H          2.91535       -3.29612        1.90790
