61
syn_C_NPh_diOMe_p-CF3benz.log	Energy: -1113797.6693010
C         -3.13989        1.68716       -0.19898
C         -1.86548        1.13279       -0.18496
C         -0.72062        1.89950        0.20347
C          0.49982        1.29601        0.19946
N          1.75468        1.82188        0.51880
C          2.00129        3.14680        0.95619
C          1.36152        3.63228        2.09681
C          1.59901        4.93603        2.51829
C          2.48719        5.74906        1.81867
C          3.13090        5.25775        0.68604
C          2.88189        3.96219        0.24542
C          0.67789       -0.07949       -0.19707
C          2.10350       -0.35222       -0.09962
C          2.86804       -1.48591       -0.33408
C          4.24237       -1.42353       -0.12113
C          5.10389       -2.61331       -0.42813
F          4.41770       -3.76714       -0.34905
F          5.61936       -2.55269       -1.67182
F          6.14784       -2.70787        0.41558
C          2.71902        0.83643        0.34089
C          4.09194        0.90246        0.56661
C          4.84201       -0.24057        0.32680
C         -0.39380       -0.83119       -0.57129
C         -1.70217       -0.25306       -0.57467
C         -2.81809       -0.99188       -0.94898
C         -4.10733       -0.43450       -0.96382
C         -5.24023       -1.18325       -1.34339
C         -6.50381       -0.61948       -1.35387
C         -7.66322       -1.37788       -1.74905
O         -7.46903       -2.68493       -2.11412
C         -7.65444       -2.92607       -3.50415
C         -8.90385       -0.80367       -1.74161
O        -10.03628       -1.47406       -2.11970
C        -10.37654       -2.59181       -1.30859
C         -6.67393        0.76211       -0.97189
C         -7.99407        1.32509       -1.00503
C         -9.06064        0.57034       -1.37138
C         -5.56572        1.50211       -0.59573
C         -4.27101        0.94420       -0.57823
H         -3.26848        2.72763        0.09123
H         -0.84345        2.94001        0.48689
H          0.68725        2.98285        2.64632
H          1.09770        5.31258        3.40460
H          2.67678        6.76354        2.15518
H          3.81983        5.88898        0.13329
H          3.35942        3.57765       -0.65059
H          2.40495       -2.40791       -0.66938
H          4.56120        1.81141        0.92651
H          5.91291       -0.21976        0.49882
H         -0.27404       -1.86805       -0.87446
H         -2.69233       -2.03250       -1.24000
H         -5.12375       -2.22471       -1.62592
H         -8.68734       -2.72249       -3.80569
H         -7.42244       -3.98033       -3.66601
H         -6.97116       -2.30544       -4.09633
H        -11.33249       -2.95958       -1.68558
H        -10.49063       -2.28655       -0.26133
H         -9.62091       -3.38034       -1.37397
H         -8.12414        2.36666       -0.72516
H        -10.06600        0.97825       -1.39771
H         -5.69390        2.54283       -0.30611
