53
syn_NPh_NPh_2-Cl_3-CN.log	Energy: -1139635.3599652
C          1.63239       -0.77144       -0.00260
C          2.72947        0.09315       -0.04124
C          4.06462       -0.40480       -0.05131
C          5.09089        0.49595       -0.08255
N          6.47466        0.29008       -0.11420
C          7.14303       -0.96002       -0.08096
C          6.82002       -1.89671        0.90089
C          7.48619       -3.11661        0.93045
C          8.48410       -3.39651        0.00024
C          8.80965       -2.45282       -0.96983
C          8.13399       -1.23815       -1.02117
C          4.87023        1.91358       -0.13183
C          6.18566        2.52390       -0.19974
C          6.47305        3.91109       -0.25484
N          6.68363        5.05181       -0.30052
C          7.09987        1.50915       -0.18932
C          3.59843        2.41571       -0.12323
C          2.49395        1.51899       -0.07122
C          1.17689        1.98557       -0.05696
C          0.07972        1.12166       -0.01640
C         -1.25524        1.61713       -0.00633
C         -2.30668        0.73974        0.03487
C         -3.73991        0.90301        0.04900
C         -4.26400       -0.34539        0.08692
Cl        -5.92470       -0.78256        0.15717
C         -2.04935       -0.67689        0.06951
N         -3.28023       -1.32747        0.09921
C         -3.45660       -2.73652        0.14299
C         -2.97431       -3.45027        1.23901
C         -3.11632       -4.83315        1.27559
C         -3.75240       -5.49864        0.23073
C         -4.23749       -4.77979       -0.85863
C         -4.08103       -3.39895       -0.91179
C         -0.78922       -1.20293        0.05193
C          0.31567       -0.30474        0.01118
H          1.80935       -1.84469        0.01739
H          4.24035       -1.47571       -0.04294
H          6.06314       -1.65870        1.64124
H          7.23364       -3.84496        1.69474
H          9.00658       -4.34732        0.03165
H          9.58282       -2.66618       -1.70127
H          8.35956       -0.51071       -1.79513
H          8.17935        1.56561       -0.20578
H          3.42211        3.48706       -0.16256
H          1.00057        3.05876       -0.07963
H         -1.42357        2.69015       -0.03512
H         -4.29913        1.82610        0.04263
H         -2.49475       -2.91509        2.05260
H         -2.73925       -5.38966        2.12801
H         -3.86933       -6.57739        0.26504
H         -4.73028       -5.29571       -1.67675
H         -4.43715       -2.82998       -1.76440
H         -0.61791       -2.27485        0.06614
