50
syn_C_NPh_diCF3_3-Cl.log	Energy: -1373549.5079433
C         -2.41686        1.31536        0.68098
C         -3.63300        0.63675        0.64652
C         -4.87006        1.32586        0.81890
C         -6.02992        0.60659        0.76786
N         -7.35222        1.01343        0.91681
C         -7.81414        2.33169        1.14456
C         -7.36676        3.37972        0.33894
C         -7.82997        4.67036        0.56890
C         -8.75383        4.91750        1.58107
C         -9.20827        3.86611        2.37220
C         -8.73304        2.57565        2.16530
C         -6.03660       -0.82361        0.57491
C         -7.42259       -1.21639        0.62885
Cl        -8.01263       -2.82674        0.44105
C         -8.16919       -0.10626        0.83698
C         -4.86666       -1.50771        0.40608
C         -3.63056       -0.79796        0.43038
C         -2.41553       -1.45661        0.25947
C         -1.19162       -0.77264        0.29211
C          0.03348       -1.45032        0.11771
C          1.25376       -0.78899        0.14769
C          2.53833       -1.45482       -0.02951
C          2.47451       -2.95832       -0.24644
F          1.75372       -3.24501       -1.34845
F          3.64940       -3.56511       -0.39421
F          1.86430       -3.55754        0.79524
C          3.70139       -0.72733        0.00556
C          5.10003       -1.30877       -0.17560
F          5.41031       -2.19546        0.77909
F          5.25690       -1.89159       -1.37133
F          6.03559       -0.34222       -0.10610
C          1.23947        0.63994        0.36546
C          2.48420        1.34024        0.39696
C          3.65763        0.69043        0.22426
C          0.04490        1.31581        0.53868
C         -1.19519        0.64984        0.50952
H         -2.41317        2.39056        0.84466
H         -4.86733        2.39659        0.99457
H         -6.67449        3.17546       -0.47147
H         -7.47886        5.48350       -0.05889
H         -9.11895        5.92526        1.75162
H         -9.92518        4.05105        3.16614
H         -9.05843        1.75782        2.80120
H         -9.24232       -0.00366        0.91044
H         -4.86681       -2.58428        0.26224
H         -2.41475       -2.53193        0.09724
H         -0.01891       -2.51847       -0.04201
H          2.47339        2.41390        0.56216
H          4.58854        1.23919        0.24959
H          0.06464        2.39092        0.70113
