49
syn_C_C_2-OMe_m-CF3benz.log	Energy: -910858.8729421
C         -2.42669       -1.66001       -0.92360
C         -3.33463       -0.73944       -0.40418
C         -4.73194       -0.83211       -0.63392
C         -5.61781        0.08193       -0.11602
C         -7.03676       -0.04129       -0.36945
C         -7.91886        0.84334        0.12901
C         -5.13641        1.18352        0.69280
C         -6.11522        2.14093        1.23004
C         -5.74413        3.24086        2.02392
C         -6.68193        4.12544        2.51521
C         -7.48641        1.96018        0.94363
C         -8.43209        2.86607        1.44969
C         -8.03878        3.93696        2.22579
C         -9.04343        4.89773        2.79625
F         -8.70087        6.17406        2.54305
F        -10.27577        4.70622        2.29954
F         -9.12997        4.78084        4.13422
C         -3.78579        1.28632        0.92340
C         -2.84930        0.35357        0.39881
C         -1.48159        0.46866        0.64011
C         -0.56255       -0.45363        0.12084
C          0.82650       -0.34666        0.35917
C          1.72801       -1.25966       -0.15598
C          3.14133       -1.15148        0.08588
C          4.00096       -2.06998       -0.43832
O          5.34531       -2.07500       -0.28213
C          5.91643       -1.04211        0.48960
C          1.23491       -2.35420       -0.96084
C          2.18965       -3.29358       -1.48776
C          3.51277       -3.16077       -1.23999
C         -0.11873       -2.47391       -1.20352
C         -1.05117       -1.54776       -0.68320
H         -2.79308       -2.48545       -1.53000
H         -5.10711       -1.65425       -1.23945
H         -7.37391       -0.87533       -0.97900
H         -8.98185        0.73819       -0.06964
H         -4.70138        3.41407        2.26399
H         -6.36927        4.96856        3.12268
H         -9.48237        2.71660        1.22110
H         -3.38462        2.09664        1.52373
H         -1.11579        1.29434        1.24665
H          1.18932        0.48003        0.96598
H          3.49060       -0.32319        0.69228
H          6.99140       -1.22454        0.49210
H          5.53969       -1.06091        1.52027
H          5.71330       -0.05765        0.04898
H          1.82487       -4.11859       -2.09360
H          4.24204       -3.86212       -1.63153
H         -0.48290       -3.30025       -1.81022
