51
syn_C_NPh_tetFbenz_3-CN.log	Energy: -1065535.1396102
C         -2.34388        1.26849        0.68375
C         -3.56916        0.59531        0.67882
C         -4.79899        1.29926        0.82258
C         -5.96078        0.58096        0.80286
N         -7.28592        1.00439        0.93482
C         -7.73154        2.34228        1.09556
C         -7.30286        3.32925        0.20838
C         -7.74883        4.63613        0.37025
C         -8.63327        4.95542        1.39754
C         -9.06621        3.96279        2.27214
C         -8.60904        2.65668        2.13167
C         -5.98110       -0.84849        0.66862
C         -7.37668       -1.23919        0.73459
C         -7.89084       -2.55706        0.63814
N         -8.28704       -3.64509        0.55764
C         -8.10551       -0.09521        0.89666
C         -4.81368       -1.54686        0.52884
C         -3.57656       -0.84334        0.52422
C         -2.35948       -1.51652        0.38029
C         -1.13926       -0.83862        0.38356
C          0.09371       -1.52964        0.23584
C          1.30673       -0.87640        0.23765
C          2.60513       -1.55493        0.08674
C          2.76294       -2.94023       -0.07706
F          1.71978       -3.78066       -0.11014
C          4.00529       -3.53570       -0.21608
F          4.09729       -4.85356       -0.36890
C          3.79318       -0.77817        0.10423
C          5.03879       -1.39772       -0.03740
F          6.15466       -0.65976       -0.01998
C          5.16070       -2.76234       -0.19687
F          6.35135       -3.33734       -0.33035
C          1.30510        0.56483        0.39753
C          2.55703        1.28648        0.40558
C          3.73611        0.65776        0.26753
C          0.12049        1.24782        0.54131
C         -1.13353        0.58839        0.54041
H         -2.33395        2.34971        0.80195
H         -4.79220        2.37678        0.95113
H         -6.63796        3.06566       -0.60789
H         -7.41470        5.40438       -0.32000
H         -8.98444        5.97554        1.51568
H         -9.75170        4.20611        3.07778
H         -8.91665        1.88339        2.82917
H         -9.17767        0.02437        0.96713
H         -4.81980       -2.62852        0.42852
H         -2.36578       -2.59775        0.26349
H          0.04424       -2.60225        0.12021
H          2.52144        2.36540        0.52777
H          4.66908        1.20833        0.27492
H          0.14307        2.32880        0.65985
