49
syn_C_NPh_3-CF3_diCN.log	Energy: -989446.7171931
C         -3.57511       -0.62026       -0.41603
C         -4.28439       -0.30089        0.74125
C         -5.70664       -0.20989        0.73459
C         -6.33760        0.10340        1.90436
N         -7.69594        0.26541        2.16884
C         -8.75142        0.09081        1.22841
C         -8.88900       -1.13483        0.57923
C         -9.91199       -1.30496       -0.34654
C        -10.80108       -0.26484       -0.60647
C        -10.66161        0.95240        0.05400
C         -9.62868        1.13993        0.96626
C         -5.62149        0.35648        3.12309
C         -6.61748        0.67694        4.12009
C         -6.37641        0.99466        5.48001
N         -6.13931        1.25117        6.58615
C         -7.84061        0.60813        3.49784
C         -9.12156        0.82592        4.07959
N        -10.15967        1.01112        4.55961
C         -4.25614        0.27664        3.15808
C         -3.55013       -0.05802        1.96866
C         -2.15819       -0.15234        1.95850
C         -1.44844       -0.47402        0.79569
C         -0.03802       -0.56775        0.79044
C          0.66495       -0.88483       -0.35761
C          2.10918       -0.99203       -0.41288
C          2.92594       -0.74992        0.82871
F          2.60187       -1.60843        1.81514
F          4.24201       -0.88543        0.60819
F          2.73453        0.49066        1.31781
C          2.74198       -1.30829       -1.57299
C         -0.06962       -1.12600       -1.58180
C          0.65411       -1.45676       -2.77840
C          2.00667       -1.54534       -2.77652
C         -1.44875       -1.03665       -1.58776
C         -2.17786       -0.71367       -0.42327
H         -4.12101       -0.80181       -1.33890
H         -6.25789       -0.38326       -0.18383
H         -8.20325       -1.94415        0.80935
H        -10.02272       -2.25773       -0.85432
H        -11.60454       -0.40433       -1.32269
H        -11.35270        1.76476       -0.14571
H         -9.50125        2.09170        1.47183
H         -3.70894        0.46883        4.07643
H         -1.60935        0.02995        2.87929
H          0.48262       -0.38152        1.72236
H          3.82280       -1.38333       -1.59313
H          0.08731       -1.63479       -3.68827
H          2.54718       -1.79563       -3.68336
H         -1.98998       -1.21961       -2.51317
