57
syn_C_NPh_2-OMe_p-CF3benz.log	Energy: -1041960.9789703
C         -3.22103        1.76306       -0.19113
C         -1.96258        1.17135       -0.18615
C         -0.78160        1.92823        0.09769
C          0.42002        1.28776        0.09120
N          1.70214        1.79564        0.32062
C          2.00502        3.14025        0.64851
C          1.42490        3.72886        1.77237
C          1.71769        5.05143        2.08682
C          2.60227        5.78144        1.29686
C          3.18637        5.18761        0.18120
C          2.88145        3.87221       -0.15259
C          0.54107       -0.11771       -0.20733
C          1.96085       -0.42834       -0.14510
C          2.68148       -1.60071       -0.32292
C          4.06431       -1.56759       -0.16795
C          4.88013       -2.80278       -0.41385
F          4.15419       -3.92549       -0.26973
F          5.39118       -2.82730       -1.66059
F          5.92516       -2.88901        0.42976
C          2.62861        0.76917        0.18038
C          4.01124        0.80681        0.34766
C          4.71647       -0.37461        0.16647
C         -0.56703       -0.86056       -0.48177
C         -1.85685       -0.24318       -0.47673
C         -3.00957       -0.97205       -0.74964
C         -4.28114       -0.37737       -0.75401
C         -5.45468       -1.11202       -1.03033
C         -6.70406       -0.51722       -1.03330
C         -7.90072       -1.26293       -1.31445
C         -9.11469       -0.64320       -1.30868
O        -10.30731       -1.23568       -1.55709
C        -10.30119       -2.61501       -1.84762
C         -6.80668        0.89383       -0.74551
C         -8.11398        1.49406       -0.75353
C         -9.22009        0.76205       -1.02244
C         -5.66621        1.62579       -0.47305
C         -4.38650        1.03021       -0.46697
H         -3.30776        2.82581        0.02464
H         -0.86289        2.99030        0.30635
H          0.75335        3.14391        2.39301
H          1.26265        5.50810        2.96032
H          2.83531        6.81099        1.54990
H          3.87204        5.75366       -0.44177
H          3.31192        3.40779       -1.03447
H          2.17800       -2.52925       -0.57013
H          4.52167        1.72406        0.61968
H          5.79369       -0.37600        0.29551
H         -0.48960       -1.92027       -0.71078
H         -2.92448       -2.03464       -0.96721
H         -5.36717       -2.17473       -1.24624
H         -7.80085       -2.32141       -1.52806
H        -11.34195       -2.89481       -2.01386
H         -9.89549       -3.19671       -1.00982
H         -9.71617       -2.82914       -2.75137
H         -8.19830        2.55583       -0.53787
H        -10.21088        1.20408       -1.03131
H         -5.75220        2.68876       -0.25736
