43
syn_S_NPh_3-CN_3-CN.log	Energy: -979301.0724869
C         -0.97366        1.13379        0.44250
C         -1.84432        0.06779        0.69125
C         -3.25235        0.26655        0.76251
C         -4.04601       -0.81919        1.00342
N         -5.43345       -0.91013        1.13774
C         -6.36382        0.15597        1.02439
C         -6.34285        0.98175       -0.09917
C         -7.26244        2.01945       -0.20331
C         -8.21121        2.22157        0.79595
C         -8.23355        1.38609        1.90911
C         -7.30422        0.35870        2.03282
C         -3.51031       -2.13544        1.20853
C         -4.64744       -2.99604        1.47422
C         -4.61075       -4.39033        1.72937
N         -4.55462       -5.53087        1.93720
C         -5.76410       -2.21080        1.42257
C         -2.16134       -2.35107        1.14419
C         -1.29306       -1.25541        0.87848
C          0.09226       -1.42905        0.80175
C          0.95825       -0.36378        0.55181
C          2.36756       -0.55167        0.47600
C          3.18706        0.51553        0.23040
C          4.63790        0.55045        0.11343
C          5.45581       -0.61026        0.24966
N          6.09180       -1.57305        0.36577
C          5.12177        1.79148       -0.13611
C          2.62992        1.82655        0.04850
S          3.89571        3.01581       -0.25205
C          1.28676        2.05213        0.11278
C          0.40810        0.95715        0.36758
H         -1.38724        2.13008        0.30344
H         -3.66521        1.26195        0.63436
H         -5.62066        0.79763       -0.88813
H         -7.24618        2.66240       -1.07772
H         -8.93183        3.02820        0.70661
H         -8.96754        1.54128        2.69352
H         -7.29450       -0.27731        2.91286
H         -6.80028       -2.49213        1.54895
H         -1.74705       -3.34308        1.29993
H          0.50665       -2.42451        0.94230
H          2.78456       -1.54577        0.61454
H          6.16253        2.05964       -0.26158
H          0.87035        3.04569       -0.02524
