36
syn_S_S_2-Cl_diCF3.log	Energy: -1645033.5384734
C          1.01112       -1.32139       -0.02286
C          2.18304       -0.55932       -0.02060
C          3.46932       -1.16843       -0.03923
C          4.58151       -0.37642       -0.03610
S          6.24871       -0.91660       -0.05736
C          4.49821        1.05535       -0.01419
C          5.82118        1.65801       -0.01511
C          5.96521        3.15304        0.00578
F          5.36271        3.69698       -1.06673
F          5.36296        3.66627        1.09358
F          7.23148        3.57099        0.01187
C          6.81434        0.73947       -0.03707
C          8.30970        0.95376       -0.04620
F          8.94115       -0.23293       -0.07429
F          8.70699        1.64245       -1.12007
F          8.72619        1.60121        1.04588
C          3.26807        1.66332        0.00401
C          2.08403        0.87821        0.00106
C          0.81789        1.47182        0.01896
C         -0.35182        0.71138        0.01649
C         -1.63893        1.32158        0.03461
C         -2.77142        0.55196        0.03186
C         -4.15459        0.97596        0.04803
C         -5.00354       -0.06760        0.03938
Cl        -6.72272        0.01906        0.05333
C         -2.65365       -0.88468        0.01050
S         -4.23774       -1.65174        0.01118
C         -1.44359       -1.51135       -0.00734
C         -0.25104       -0.72742       -0.00491
H          1.08592       -2.40619       -0.03908
H          3.54522       -2.25167       -0.05571
H          3.18130        2.74439        0.02132
H          0.74448        2.55670        0.03523
H         -1.70978        2.40582        0.05065
H         -4.47219        2.01099        0.06512
H         -1.36487       -2.59446       -0.02341
