37
syn_C_O_diF_3-OMe.log	Energy: -726145.3627618
C         -2.43793        1.28768        0.22464
C         -3.61275        0.56772        0.41432
C         -4.88434        1.22339        0.47328
C         -5.98248        0.44904        0.66135
O         -7.27151        0.88179        0.74516
C         -5.92652       -0.97319        0.80127
C         -7.30687       -1.37316        0.97937
O         -7.66536       -2.65883        1.14660
C         -9.05255       -2.87032        1.30949
C         -8.04833       -0.24381        0.93766
C         -4.73405       -1.63190        0.75018
C         -3.53685       -0.87513        0.55412
C         -2.29342       -1.49690        0.49439
C         -1.10752       -0.77165        0.30306
C          0.15242       -1.40338        0.24284
C          1.30826       -0.66904        0.05385
C          2.59800       -1.28781       -0.01053
F          2.67184       -2.61877        0.11762
C          3.72267       -0.55377       -0.19628
F          4.91947       -1.15041       -0.25367
C          1.24384        0.76735       -0.08605
C          2.46408        1.50029       -0.28110
C          3.66207        0.86293       -0.33447
C          0.00935        1.39015       -0.02759
C         -1.18291        0.66117        0.16447
H         -2.49085        2.36893        0.11965
H         -4.95618        2.30079        0.37038
H         -9.19220       -3.94392        1.43538
H         -9.60620       -2.52713        0.42533
H         -9.42611       -2.34268        2.19723
H         -9.10732       -0.05973        1.02421
H         -4.68101       -2.71106        0.85520
H         -2.23740       -2.57798        0.59916
H          0.21157       -2.48205        0.34690
H          2.41177        2.57973       -0.38577
H          4.59367        1.39854       -0.48095
H         -0.04673        2.47128       -0.13213
