57
syn_C_NPh_p-CNbenz_tetClbenz.log	Energy: -2066470.9291772
C         -3.31173        1.39533        0.16043
C         -2.00950        0.90243        0.24223
C         -0.87830        1.72676       -0.03091
C          0.36418        1.17519        0.06900
N          1.59631        1.78662       -0.15033
C          1.68722        3.16307       -0.52038
C          1.75700        4.13735        0.47097
C          1.80797        5.47910        0.10888
C          1.77645        5.84005       -1.23599
C          1.68702        4.86012       -2.22167
C          1.63640        3.51675       -1.86538
C          0.58559       -0.19561        0.43750
C          2.03039       -0.37984        0.42995
C          2.84907       -1.47126        0.69799
Cl         2.14258       -2.98931        1.14601
C          4.23730       -1.34490        0.60688
Cl         5.25821       -2.70163        0.94145
C          2.60616        0.86052        0.06436
C          3.99247        1.00070       -0.03290
Cl         4.71796        2.50917       -0.48479
C          4.79901       -0.11020        0.24180
Cl         6.51791        0.04030        0.12888
C         -0.48438       -1.00418        0.70351
C         -1.80831       -0.47917        0.61332
C         -2.91696       -1.28296        0.87946
C         -4.22177       -0.78669        0.79671
C         -5.35145       -1.60107        1.06662
C         -6.63840       -1.12099        0.98744
C         -7.82226       -1.94823        1.26337
C         -7.72738       -3.29673        1.63226
C         -8.86471       -4.05393        1.88682
C         -8.72727       -5.43343        2.26268
N         -8.61686       -6.54691        2.56605
C         -9.11085       -1.37428        1.15653
C        -10.25024       -2.15566        1.41762
C        -10.14273       -3.48041        1.77917
C         -6.83446        0.26177        0.61517
C         -8.17945        0.78472        0.52515
C         -9.25392        0.01485        0.77961
C         -5.75106        1.06864        0.34957
C         -4.42177        0.58698        0.42780
H         -3.46865        2.43471       -0.11850
H         -1.01599        2.76615       -0.31070
H          1.78300        3.83528        1.51313
H          1.87378        6.24271        0.87742
H          1.81869        6.88796       -1.51652
H          1.65855        5.14130       -3.26964
H          1.57001        2.73783       -2.61826
H         -0.35369       -2.04217        0.98380
H         -2.76106       -2.32267        1.15855
H         -5.15764       -2.63299        1.34188
H         -6.76214       -3.77960        1.72763
H        -11.23135       -1.69749        1.33025
H        -11.02400       -4.07968        1.97988
H         -8.30192        1.82703        0.24331
H        -10.25780        0.42376        0.70697
H         -5.91580        2.10703        0.07081
