36
syn_S_O_diF_tetClbenz.log	Energy: -2105528.7411104
C         -3.39524        1.25281        0.29987
C         -2.10030        0.74399        0.20508
C         -0.95744        1.55763        0.48497
C          0.26232        0.98180        0.36768
O          1.45935        1.61764        0.59852
C          0.47266       -0.38103       -0.01674
C          1.92005       -0.54556       -0.00722
C          2.80319       -1.58590       -0.27271
Cl         2.18301       -3.13188       -0.74304
C          4.18051       -1.36619       -0.15508
Cl         5.28794       -2.65357       -0.48314
C          2.43115        0.69902        0.37198
C          3.78661        0.95208        0.49851
Cl         4.32013        2.52181        0.97263
C          4.66744       -0.10194        0.22903
Cl         6.36693        0.16430        0.37321
C         -0.60140       -1.17881       -0.28913
C         -1.91800       -0.63409       -0.18439
C         -3.04084       -1.41748       -0.45432
C         -4.33861       -0.90811       -0.35917
C         -5.47861       -1.71360       -0.63570
C         -6.73200       -1.17693       -0.53094
C         -8.00822       -1.80746       -0.76227
F         -8.10829       -3.08372       -1.13271
C         -9.04965       -0.98213       -0.56615
F        -10.33017       -1.28108       -0.70244
C         -6.90538        0.19563       -0.14348
S         -8.60964        0.65190       -0.07971
C         -5.83863        0.99916        0.12965
C         -4.51923        0.46709        0.02908
H         -3.53451        2.29063        0.59297
H         -1.07087        2.59508        0.77930
H         -0.47793       -2.21505       -0.58264
H         -2.90192       -2.45545       -0.74745
H         -5.34814       -2.75099       -0.92861
H         -5.97170        2.03655        0.42259
