41
syn_O_NPh_C_2-Cl.log	Energy: -949288.1760911
C          0.29407       -0.80713        0.18179
C          1.54544       -0.18234        0.20166
C          2.75140       -0.93534        0.12864
C          3.93827       -0.25888        0.14838
N          5.24021       -0.75209        0.09954
C          5.58774       -2.12456       -0.01753
C          5.19635       -2.83233       -1.15303
C          5.50624       -4.18358       -1.26213
C          6.21898       -4.82147       -0.25004
C          6.61247       -4.10810        0.87911
C          6.28828       -2.76153        1.00463
C          4.01943        1.17415        0.25353
C          5.42170        1.51242        0.26142
C          6.09563        0.34099        0.16839
Cl         7.79836        0.11566        0.09334
C          2.86703        1.91297        0.32621
C          1.60400        1.25787        0.29904
C          0.40663        1.97744        0.36808
C         -0.84236        1.35446        0.34733
C         -2.05077        2.11144        0.41905
C         -3.25231        1.45878        0.39596
C         -4.64683        1.85164        0.44651
C         -5.35438        0.70917        0.38207
C         -3.27772        0.03175        0.30064
O         -4.57294       -0.40982        0.29335
C         -2.16769       -0.74633        0.22925
C         -0.89930       -0.08765        0.25137
H          0.25035       -1.89174        0.10988
H          2.71274       -2.01822        0.06123
H          4.65448       -2.31717       -1.93997
H          5.19943       -4.73556       -2.14512
H          6.46659       -5.87458       -0.34072
H          7.16422       -4.60317        1.67212
H          6.57140       -2.20023        1.88906
H          5.86341        2.49559        0.31817
H          2.90236        2.99598        0.40782
H          0.45091        3.06216        0.44112
H         -1.99610        3.19416        0.49090
H         -5.04684        2.85208        0.52069
H         -6.41725        0.51784        0.38769
H         -2.23013       -1.82704        0.15807
