35
syn_C_O_C_diCN.log	Energy: -645517.7396696
C         -2.19875        0.76358        1.75865
C         -3.48091        0.65295        1.23121
C         -4.62133        1.13364        1.95121
C         -5.83137        0.98420        1.36153
O         -7.04101        1.37687        1.88514
C         -6.02691        0.38312        0.08196
C         -7.45982        0.43990       -0.13626
C         -8.17180       -0.03131       -1.27022
N         -8.71956       -0.42757       -2.21165
C         -7.98242        1.03792        0.96979
C         -9.33548        1.34392        1.28232
N        -10.44303        1.58572        1.52037
C         -4.96256       -0.08593       -0.63224
C         -3.65513        0.03784       -0.07235
C         -2.53468       -0.42416       -0.75852
C         -1.24205       -0.31286       -0.22714
C         -0.10457       -0.78018       -0.92003
C          1.16675       -0.66573       -0.38701
C          2.33147       -1.13806       -1.08401
C          3.56897       -1.01373       -0.53876
C          1.34019       -0.05354        0.91064
C          2.67003        0.05460        1.44442
C          3.74104       -0.40664        0.74822
C          0.23276        0.40855        1.59978
C         -1.06929        0.29810        1.06772
H         -2.06553        1.22385        2.73475
H         -4.51050        1.59573        2.92577
H         -5.09450       -0.54567       -1.60707
H         -2.66580       -0.88465       -1.73490
H         -0.23683       -1.24057       -1.89655
H          2.19792       -1.59784       -2.05959
H          4.44123       -1.37442       -1.07520
H          2.79857        0.51513        2.42031
H          4.74062       -0.31880        1.16281
H          0.36392        0.86916        2.57633
