51
syn_S_NPh_2-Cl_p-OMebenz.log	Energy: -1320193.2797449
C         -3.48356        1.30954       -0.16249
C         -2.17142        0.83341       -0.12238
C         -1.05803        1.72331       -0.05319
C          0.20085        1.19582       -0.01199
N          1.43314        1.84015        0.04196
C          1.62881        3.23990        0.08355
C          1.01919        4.00081        1.08225
C          1.20562        5.37854        1.11309
C          2.01593        5.99943        0.16600
C          2.63200        5.23661       -0.82259
C          2.43208        3.86129       -0.87386
C          0.43410       -0.22624       -0.05563
C          1.87739       -0.40957       -0.02516
C          2.68215       -1.53826       -0.02999
C          4.06818       -1.38111        0.02670
O          4.79070       -2.53628        0.01299
C          6.19325       -2.44009        0.07796
C          2.44980        0.87540        0.03221
C          3.82429        1.03906        0.10223
C          4.63010       -0.10021        0.09622
C         -0.61484       -1.09435       -0.12167
C         -1.95115       -0.59319       -0.15275
C         -3.04909       -1.45105       -0.21759
C         -4.36250       -0.97307       -0.25598
C         -5.47820       -1.85316       -0.32200
C         -6.75497       -1.35583       -0.35931
C         -8.00797       -2.07665       -0.42671
C         -9.06812       -1.24887       -0.44721
Cl       -10.72495       -1.71735       -0.52417
C         -6.95944        0.06866       -0.33127
S         -8.67479        0.46511       -0.38839
C         -5.91897        0.94836       -0.26829
C         -4.58340        0.44998       -0.22837
H         -3.65493        2.38354       -0.14187
H         -1.22856        2.79510       -0.04056
H          0.40868        3.50515        1.83057
H          0.72636        5.96659        1.88990
H          2.16634        7.07403        0.19801
H          3.26003        5.71492       -1.56807
H          2.88713        3.26234       -1.65667
H          2.26593       -2.53950       -0.07270
H          6.56723       -3.46451        0.05364
H          6.52419       -1.95821        1.00772
H          6.60199       -1.88747       -0.77867
H          4.27344        2.02435        0.16718
H          5.70481        0.02840        0.14987
H         -0.45069       -2.16828       -0.15712
H         -2.87812       -2.52529       -0.23990
H         -5.30533       -2.92612       -0.34255
H         -8.08663       -3.15628       -0.45728
H         -6.08412        2.02181       -0.24785
