49
syn_O_NPh_p-CNbenz_3-CN.log	Energy: -873014.4551542
C         -3.51601        0.97861        0.04806
C         -4.59644        0.08664        0.01795
C         -5.93937        0.55482        0.02847
C         -6.94602       -0.37004       -0.00768
N         -8.33170       -0.19557        0.00836
C         -9.02547        1.04237        0.04281
C         -8.72540        2.03415       -0.89048
C         -9.41403        3.24141       -0.85187
C        -10.41042        3.45284        0.09788
C        -10.71263        2.45385        1.01893
C        -10.01474        1.25084        1.00211
C         -6.69422       -1.78203       -0.03163
C         -7.99485       -2.42385       -0.02298
C         -8.24840       -3.81867       -0.04890
N         -8.42870       -4.96512       -0.06932
C         -8.93142       -1.42952        0.00466
C         -5.40995       -2.25481       -0.04288
C         -4.32932       -1.33147       -0.02364
C         -2.99863       -1.76743       -0.03589
C         -1.92688       -0.87801       -0.00743
C         -0.57530       -1.34551       -0.02016
C          0.44301       -0.44056        0.00995
C          1.89640       -0.51858        0.01000
C          2.82162       -1.55133       -0.02100
C          4.18178       -1.22182       -0.00822
C          5.16428       -2.26845       -0.03973
N          5.95740       -3.11368       -0.06533
C          2.34245        0.80997        0.05277
C          3.68319        1.15807        0.06616
C          4.60368        0.11865        0.03490
C          0.15198        0.96113        0.05372
O          1.31197        1.70099        0.07906
C         -1.10252        1.46981        0.06777
C         -2.19410        0.54210        0.03683
H         -3.71807        2.04671        0.08131
H         -6.14081        1.62028        0.07234
H         -7.96909        1.84931       -1.64659
H         -9.18034        4.01366       -1.57802
H        -10.95037        4.39407        0.11950
H        -11.48481        2.61430        1.76467
H        -10.22206        0.47898        1.73718
H        -10.00955       -1.50907       -0.00073
H         -5.20924       -3.32235       -0.05907
H         -2.79759       -2.83584       -0.06746
H         -0.38312       -2.41429       -0.05329
H          2.51043       -2.58995       -0.05436
H          3.99410        2.19555        0.09956
H          5.66596        0.33705        0.04366
H         -1.28497        2.53839        0.10145
