56
syn_NPh_NPh_2-F_2-OMe.log	Energy: -927478.6613225
C          0.51119       -0.96384        0.08742
C          1.72088       -0.26819        0.12913
C          2.97356       -0.94815        0.05508
C          4.11788       -0.20814        0.09607
N          5.45153       -0.62026        0.05939
C          5.91191       -1.94568       -0.14041
C          5.43101       -2.68629       -1.22056
C          5.86062       -3.99571       -1.40694
C          6.78448       -4.56209       -0.53297
C          7.27147       -3.81472        0.53625
C          6.83032       -2.51257        0.74263
C          4.11641        1.22786        0.22988
C          5.49647        1.64851        0.26640
C          6.24467        0.51547        0.16209
O          7.56518        0.31909        0.12995
C          8.34928        1.49636        0.19540
C          2.92350        1.89463        0.30471
C          1.69602        1.17039        0.25166
C          0.46021        1.81723        0.31983
C         -0.75253        1.12262        0.27605
C         -2.00372        1.80092        0.33931
C         -3.17216        1.08798        0.29964
C         -4.56825        1.46446        0.32710
C         -5.25439        0.30554        0.24096
F         -6.56259        0.11566        0.23965
C         -3.12166       -0.34920        0.19477
N         -4.44159       -0.81088        0.15771
C         -4.87262       -2.16014        0.13419
C         -4.34181       -3.07029        1.04888
C         -4.75059       -4.39874        1.01540
C         -5.70276       -4.81770        0.08994
C         -6.23958       -3.90213       -0.81103
C         -5.81983       -2.57664       -0.80071
C         -1.95001       -1.04389        0.11492
C         -0.72525       -0.31561        0.15819
H          0.53135       -2.04818       -0.00310
H          2.99475       -2.03059       -0.02621
H          4.72727       -2.22933       -1.90902
H          5.48034       -4.56959       -2.24658
H          7.12402       -5.58211       -0.68453
H          7.99047       -4.25095        1.22307
H          7.19331       -1.92965        1.58172
H          5.86186        2.65970        0.35847
H          8.12497        2.15730       -0.64971
H          9.38842        1.17175        0.14799
H          8.16742        2.03131        1.13485
H          2.89495        2.97605        0.40990
H          0.43988        2.90155        0.41045
H         -2.01557        2.88508        0.41368
H         -4.99064        2.45418        0.40227
H         -3.61842       -2.72953        1.78265
H         -4.33221       -5.10511        1.72587
H         -6.02564       -5.85397        0.07129
H         -6.98085       -4.22211       -1.53685
H         -6.21899       -1.86449       -1.51465
H         -1.93138       -2.12467        0.01381
