37
syn_C_S_2-OMe_2-Cl.log	Energy: -1092707.2623492
C          1.10069       -1.67623        0.58439
C         -0.03207       -0.92851        0.28939
C         -1.34838       -1.45278        0.48963
C         -2.42754       -0.68238        0.18610
S         -4.12510       -1.12694        0.35395
C         -2.28969        0.65722       -0.33557
C         -3.57804        1.27110       -0.57888
C         -4.59735        0.45275       -0.26319
Cl        -6.27543        0.81478       -0.40979
C         -1.04196        1.17932       -0.53526
C          0.12366        0.41190       -0.23254
C          1.40279        0.92041       -0.42677
C          2.55373        0.16991       -0.13058
C          3.85228        0.68074       -0.32554
C          4.98274       -0.06740       -0.03025
C          6.30448        0.44035       -0.22393
C          7.40139       -0.31517        0.07408
O          8.61723        0.25074       -0.14272
C          9.77948       -0.49199        0.14932
C          4.82033       -1.40448        0.49042
C          6.00094       -2.15930        0.78856
C          7.24391       -1.64529        0.59219
C          3.54928       -1.91840        0.68665
C          2.39568       -1.16633        0.38977
H          0.98579       -2.68424        0.97697
H         -1.46044       -2.45959        0.88169
H         -3.70851        2.27250       -0.96969
H         -0.92268        2.18591       -0.92733
H          1.51907        1.92815       -0.81932
H          3.96683        1.68847       -0.71810
H          6.44502        1.44330       -0.61460
H         10.61807        0.15846       -0.10228
H          9.84269       -1.40555       -0.45561
H          9.83897       -0.75529        1.21313
H          5.88695       -3.16636        1.18096
H          8.11363       -2.24684        0.82977
H          3.43435       -2.92652        1.07930
