48
syn_C_NPh_diF_3-OMe.log	Energy: -858628.1475785
C         -2.38076        1.32705        0.48323
C         -3.57522        0.62086        0.60985
C         -4.81935        1.29595        0.78950
C         -5.96062        0.55079        0.89931
N         -7.28051        0.93062        1.09462
C         -7.77936        2.24253        1.21840
C         -7.37952        3.23853        0.32385
C         -7.88159        4.52839        0.45412
C         -8.80139        4.83115        1.45456
C         -9.21200        3.83267        2.33350
C         -8.69761        2.54548        2.22644
C         -5.92604       -0.89061        0.87338
C         -7.28710       -1.33078        1.07468
O         -7.60982       -2.64083        1.09044
C         -8.97915       -2.91255        1.28620
C         -8.06560       -0.22824        1.21218
C         -4.75114       -1.56363        0.70127
C         -3.53843       -0.82790        0.55578
C         -2.31681       -1.47137        0.37397
C         -1.11548       -0.76064        0.24350
C          0.12262       -1.41263        0.05863
C          1.29504       -0.69223       -0.06637
C          2.56268       -1.33168       -0.25487
F          2.59810       -2.66946       -0.30992
C          3.70434       -0.61094       -0.37584
F          4.88000       -1.22733       -0.55182
C          1.27224        0.75172       -0.00908
C          2.50997        1.46992       -0.14233
C          3.68504        0.81287       -0.31950
C          0.06092        1.39463        0.17184
C         -1.14982        0.68036        0.30155
H         -2.40199        2.41387        0.52540
H         -4.83348        2.37923        0.84649
H         -6.69563        2.99176       -0.48151
H         -7.56422        5.29662       -0.24460
H         -9.19701        5.83763        1.54727
H         -9.92568        4.05864        3.12009
H         -8.98978        1.77479        2.93331
H         -9.08738       -3.99744        1.28094
H         -9.58535       -2.47839        0.47929
H         -9.32495       -2.51293        2.24954
H         -9.13334       -0.13538        1.34254
H         -4.72999       -2.64914        0.68446
H         -2.29295       -2.55806        0.33319
H          0.15041       -2.49673        0.01452
H          2.48930        2.55467       -0.09857
H          4.62877        1.33740       -0.42200
H          0.03674        2.48120        0.21584
