55
syn_O_NPh_diOMe_tetFbenz.log	Energy: -1149967.7681183
C         -3.06439        1.69516       -0.38610
C         -1.79041        1.13749       -0.24682
C         -0.65381        1.94517        0.05649
C          0.56068        1.33713        0.18477
N          1.80984        1.90081        0.46742
C          2.04164        3.29382        0.62762
C          1.40500        3.97760        1.66178
C          1.60091        5.34728        1.80452
C          2.44245        6.02836        0.92932
C          3.08190        5.33816       -0.09749
C          2.87463        3.97326       -0.25871
C          0.72705       -0.07840        0.00492
C          2.14170       -0.34371        0.18469
C          2.89205       -1.50833        0.14425
F          2.31101       -2.68251       -0.11702
C          4.25751       -1.45994        0.37815
F          4.99800       -2.56865        0.33955
C          2.76330        0.89133        0.46255
C          4.13075        0.94230        0.71560
F          4.76301        2.08325        1.00933
C          4.86488       -0.23611        0.66185
F          6.17523       -0.20079        0.89284
C         -0.34480       -0.87330       -0.28526
C         -1.63703       -0.28633       -0.41515
C         -2.76152       -1.06224       -0.70869
C         -4.03474       -0.50655       -0.84771
C         -5.17266       -1.31661       -1.14844
C         -6.39584       -0.72125       -1.27978
C         -7.73979       -1.17455       -1.56610
O         -8.12725       -2.46424       -1.79243
C         -7.75659       -2.94146       -3.07741
C         -8.52542       -0.06330       -1.53906
O         -9.81616        0.18281       -1.70331
C        -10.65436       -0.93677       -1.96806
C         -6.51904        0.69012       -1.10094
O         -7.82781        1.07078       -1.25516
C         -5.48311        1.51365       -0.81269
C         -4.18742        0.92047       -0.67993
H         -3.18480        2.76890       -0.26048
H         -0.77043        3.01749        0.17646
H          0.76598        3.43040        2.34786
H          1.10399        5.87959        2.60964
H          2.60084        7.09578        1.04742
H          3.73760        5.86562       -0.78319
H          3.35562        3.42929       -1.06521
H         -0.22424       -1.94295       -0.42258
H         -2.63967       -2.13607       -0.83353
H         -5.05223       -2.39056       -1.25745
H         -8.05175       -3.99160       -3.11783
H         -6.67514       -2.85812       -3.23809
H         -8.27403       -2.38148       -3.86799
H        -11.66516       -0.53394       -2.02478
H        -10.58405       -1.67565       -1.16615
H        -10.38819       -1.40580       -2.92061
H         -5.62166        2.58157       -0.68189
