40
syn_C_C_2-OMe_3-Cl.log	Energy: -891422.3656646
C         -2.62673        0.62592       -0.79874
C         -3.72904        0.30864        0.00200
C         -5.02768        0.78938       -0.27698
C         -6.11227        0.47247        0.51804
C         -7.42764        0.96894        0.22223
C         -8.48561        0.65199        1.00901
C         -5.91899       -0.37927        1.67562
C         -7.08916       -0.67546        2.46799
Cl        -6.92311       -1.69844        3.87927
C         -8.31582       -0.18737        2.15625
C         -4.65626       -0.85779        1.96244
C         -3.53971       -0.53884        1.15485
C         -2.25903       -1.02206        1.44351
C         -1.15727       -0.70581        0.64481
C          0.14325       -1.18977        0.92897
C          1.22847       -0.87426        0.13652
C          2.54992       -1.36564        0.42524
C          3.59794       -1.03390       -0.37899
O          4.88088       -1.43146       -0.21217
C          5.16775       -2.26256        0.89038
C          1.03220       -0.02430       -1.01868
C          2.17858        0.29181       -1.83170
C          3.40548       -0.18865       -1.52921
C         -0.22531        0.45701       -1.31228
C         -1.34918        0.14285       -0.50928
H         -2.76874        1.26455       -1.66784
H         -5.17463        1.42837       -1.14486
H         -7.55354        1.60572       -0.64896
H         -9.47736        1.02946        0.78155
H         -9.17048       -0.43295        2.77680
H         -4.50457       -1.49562        2.82710
H         -2.11865       -1.66048        2.31276
H          0.28189       -1.82794        1.79885
H          2.67580       -2.00061        1.29515
H          6.23806       -2.46602        0.84641
H          4.61273       -3.20754        0.83103
H          4.92876       -1.76271        1.83780
H          2.03731        0.92934       -2.70025
H          4.27632        0.04239       -2.13362
H         -0.36553        1.09539       -2.18197
