35
syn_S_S_2-CN_3-OMe.log	Energy: -1063469.3190319
C          1.01349       -1.33039        0.29902
C          2.19656       -0.59172        0.22559
C          3.47304       -1.21569        0.34802
C          4.60160       -0.45236        0.26972
S          6.26856       -0.99608        0.39151
C          4.53296        0.96646        0.06657
C          5.86101        1.55384        0.01864
O          5.95136        2.88585       -0.16798
C          7.25870        3.41793       -0.20624
C          6.85344        0.64976        0.17339
C          3.32424        1.59319       -0.05445
C          2.12126        0.83474        0.02126
C          0.86795        1.43716       -0.09727
C         -0.31640        0.69813       -0.02364
C         -1.58954        1.31771       -0.14476
C         -2.73544        0.56671       -0.06830
C         -4.10608        1.00213       -0.16557
C         -4.98994       -0.01683       -0.04461
C         -6.40674        0.09981       -0.09794
N         -7.56215        0.19166       -0.14076
C         -2.64558       -0.85510        0.13536
S         -4.23919       -1.59457        0.19836
C         -1.44362       -1.48966        0.25676
C         -0.24105       -0.72781        0.18045
H          1.07062       -2.40545        0.45301
H          3.52524       -2.28963        0.50185
H          7.15047        4.49170       -0.35947
H          7.83425        2.98355       -1.03380
H          7.78515        3.23147        0.73868
H          7.91918        0.82800        0.17638
H          3.27754        2.66714       -0.20803
H          0.81133        2.51234       -0.25115
H         -1.64509        2.39217       -0.29834
H         -4.40497        2.03210       -0.31894
H         -1.38116       -2.56296        0.41050
