45
syn_C_C_diCl_p-CF3benz.log	Energy: -1415794.5235329
C         -1.88190       -1.57927        1.72743
C         -2.95746       -0.74962        1.42007
C         -4.25476       -0.95132        1.96003
C         -5.30820       -0.12589        1.64957
C         -6.61838       -0.35964        2.21722
C         -7.66280        0.43661        1.92617
C         -5.11793        0.99172        0.74683
C         -6.27201        1.85137        0.44170
C         -6.17999        2.95553       -0.42047
C         -7.28135        3.74442       -0.69071
C         -7.16905        4.94037       -1.59512
F         -5.97741        5.01013       -2.21008
F         -8.11484        4.92172       -2.55132
F         -7.33343        6.08793       -0.91229
C         -7.52317        1.56604        1.03047
C         -8.63184        2.38132        0.74318
C         -8.52189        3.46017       -0.10661
C         -3.86857        1.19973        0.21603
C         -2.76201        0.35979        0.52145
C         -1.49970        0.58178       -0.02378
C         -0.41301       -0.24978        0.28156
C          0.86837       -0.02747       -0.26985
C          1.93998       -0.84701        0.03073
C          3.26481       -0.64770       -0.51689
Cl         3.52828        0.68171       -1.60434
C          4.28653       -1.48698       -0.18642
Cl         5.89052       -1.28436       -0.82087
C          1.74272       -1.96027        0.93355
C          2.85587       -2.81025        1.24511
C          4.07841       -2.58605        0.70939
C          0.49283       -2.18612        1.47821
C         -0.61039       -1.35859        1.18059
H         -2.03013       -2.41632        2.40579
H         -4.41280       -1.78605        2.63918
H         -6.73715       -1.20366        2.89123
H         -8.64055        0.24763        2.36054
H         -5.23935        3.20765       -0.89354
H         -9.58826        2.14789        1.20272
H         -9.38320        4.08267       -0.32553
H         -3.68342        2.02486       -0.46405
H         -1.35061        1.41855       -0.70223
H          1.00075        0.81107       -0.94472
H          2.70012       -3.64368        1.92367
H          4.92263       -3.22512        0.94150
H          0.35350       -3.02518        2.15580
