44
syn_S_O_p-OMebenz_2-OMe.log	Energy: -971167.5980000
C         -3.58854        1.12065       -0.00081
C         -4.60168        0.15988        0.00024
C         -5.98179        0.53627        0.00008
C         -6.89623       -0.46206        0.00114
O         -8.26225       -0.29664        0.00118
C         -6.58229       -1.85868        0.00241
C         -7.85698       -2.53803        0.00324
C         -8.78761       -1.55612        0.00244
O        -10.10833       -1.65733        0.00267
C        -10.86955       -0.45226        0.00215
C         -5.26754       -2.23848        0.00258
C         -4.24631       -1.23986        0.00150
C         -2.89180       -1.58463        0.00162
C         -1.87983       -0.62284        0.00057
C         -0.50085       -0.98452        0.00069
C          0.47207       -0.02524       -0.00035
C          1.92328       -0.19450       -0.00042
C          2.64830       -1.37972        0.00057
C          4.04242       -1.33961        0.00030
O          4.66328       -2.54872        0.00129
C          6.07186       -2.57201        0.00140
C          2.60070        1.03677       -0.00168
C          3.98650        1.08097       -0.00194
C          4.71052       -0.10929       -0.00095
C          0.10064        1.36405       -0.00159
S          1.50943        2.42761       -0.00280
C         -1.20440        1.75624       -0.00175
C         -2.23706        0.77043       -0.00068
H         -3.86100        2.17385       -0.00175
H         -6.27240        1.58146       -0.00086
H         -8.05389       -3.59818        0.00428
H        -11.91105       -0.77152        0.00258
H        -10.66064        0.14258       -0.89126
H        -10.66023        0.14361        0.89478
H         -4.98384       -3.28689        0.00352
H         -2.61755       -2.63743        0.00256
H         -0.23731       -2.03929        0.00163
H          2.15600       -2.34688        0.00155
H          6.35506       -3.62526        0.00244
H          6.48416       -2.08707        0.89593
H          6.48427       -2.08881       -0.89402
H          4.51393        2.02973       -0.00292
H          5.79306       -0.06253       -0.00119
H         -1.47868        2.80743       -0.00269
