44
syn_S_NPh_diCl_3-CF3.log	Energy: -1651796.9145525
C         -1.05490        1.16735        0.78039
C         -2.05674        0.19673        0.66616
C         -3.43145        0.53412        0.81297
C         -4.35915       -0.46325        0.69544
N         -5.75107       -0.41564        0.77488
C         -6.54629        0.72903        1.03232
C         -6.25917        1.54868        2.12394
C         -7.04987        2.66553        2.37046
C         -8.13558        2.95498        1.54783
C         -8.42462        2.12607        0.46753
C         -7.62615        1.01934        0.19960
C         -3.99577       -1.82361        0.40599
C         -5.23638       -2.55891        0.31533
C         -5.37942       -4.00811        0.04874
F         -4.76912       -4.75582        0.98864
F         -6.67131       -4.37952        0.01278
F         -4.82411       -4.35848       -1.12809
C         -6.24595       -1.67992        0.53761
C         -2.67891       -2.16931        0.26098
C         -1.67573       -1.17014        0.39320
C         -0.31852       -1.48010        0.25536
C          0.67720       -0.51054        0.37168
C          2.05631       -0.83745        0.22954
C          3.00792        0.13698        0.34861
C          4.44973        0.02461        0.24175
Cl         5.23491       -1.47668       -0.07672
C          5.08936        1.19975        0.41588
Cl         6.78073        1.46849        0.36386
C          2.61833        1.49456        0.61751
S          4.01802        2.55919        0.72585
C          1.31115        1.85104        0.76048
C          0.29636        0.85395        0.64143
H         -1.34048        2.19699        0.98390
H         -3.71645        1.56367        1.00386
H         -5.43136        1.29844        2.77966
H         -6.82443        3.30279        3.21989
H         -8.75459        3.82356        1.74873
H         -9.26644        2.34813       -0.18081
H         -7.82617        0.38722       -0.66032
H         -7.31149       -1.85814        0.57091
H         -2.39212       -3.19260        0.03893
H         -0.03250       -2.50910        0.05017
H          2.34394       -1.86495        0.02623
H          1.02341        2.87861        0.96334
