44
syn_S_NPh_3-F_3-CF3.log	Energy: -1137270.3744233
C         -1.07580        1.13687        0.64615
C         -1.98023        0.06972        0.65505
C         -3.38089        0.28987        0.78315
C         -4.21050       -0.79642        0.77851
N         -5.59835       -0.87379        0.90318
C         -6.49761        0.21181        1.04770
C         -6.44233        1.28886        0.16282
C         -7.33321        2.34603        0.31146
C         -8.29055        2.32337        1.32252
C         -8.34934        1.23978        2.19433
C         -7.44802        0.18824        2.06766
C         -3.71699       -2.14281        0.67487
C         -4.87714       -3.00134        0.75095
C         -4.88088       -4.47953        0.67366
F         -4.36820       -4.92448       -0.49017
F         -4.13465       -5.03527        1.64866
F         -6.12514       -4.97804        0.78383
C         -5.96498       -2.20235        0.88981
C         -2.37388       -2.37679        0.55099
C         -1.47149       -1.27737        0.53194
C         -0.09233       -1.47052        0.40490
C          0.80748       -0.40412        0.39473
C          2.21010       -0.61091        0.26506
C          3.05707        0.46274        0.26054
C          4.49653        0.48944        0.14219
F          5.18493       -0.64787        0.01468
C          5.04849        1.71267        0.17158
C          2.54760        1.79894        0.38541
S          3.85211        2.98510        0.34979
C          1.21124        2.03960        0.51175
C          0.29971        0.94111        0.51997
H         -1.45788        2.15094        0.74057
H         -3.75965        1.30123        0.88991
H         -5.71553        1.28451       -0.64310
H         -7.28783        3.18377       -0.37748
H         -8.98872        3.14741        1.42996
H         -9.08980        1.21727        2.98781
H         -7.46679       -0.64430        2.76450
H         -7.00837       -2.47573        0.95943
H         -1.98878       -3.38910        0.47539
H          0.29008       -2.48449        0.31220
H          2.59970       -1.62026        0.17061
H          6.09962        1.95238        0.09884
H          0.82380        3.05003        0.60663
