54
syn_NPh_NPh_3-Cl_diCN.log	Energy: -1197492.8785632
C          0.54072        0.42666        0.49497
C         -0.75849        0.03910        0.15310
C         -1.88778        0.80742        0.55186
C         -3.12918        0.37108        0.17982
N         -4.38349        0.91832        0.44339
C         -4.63016        2.12303        1.16106
C         -4.05233        3.31114        0.71697
C         -4.28349        4.48711        1.42133
C         -5.10099        4.47897        2.54891
C         -5.68167        3.28947        2.97935
C         -5.43939        2.10365        2.29421
C         -3.32680       -0.83073       -0.57674
C         -4.75392       -0.97298       -0.74879
C         -5.42019       -2.01579       -1.43996
N         -5.92986       -2.88635       -2.01286
C         -5.34091        0.09909       -0.12011
C         -6.72937        0.40133       -0.03838
N         -7.86217        0.63610        0.02865
C         -2.25567       -1.58817       -0.97202
C         -0.94491       -1.16999       -0.62023
C          0.17981       -1.90828       -1.00303
C          1.47550       -1.51869       -0.66230
C          2.60867       -2.27767       -1.07053
C          3.85995       -1.86052       -0.71148
C          5.18853       -2.35813       -0.96582
Cl         5.56743       -3.78338       -1.86152
C          6.07392       -1.52402       -0.37097
C          4.03559       -0.66888        0.08020
N          5.40207       -0.49616        0.27696
C          6.03252        0.55599        0.98269
C          7.10549        1.23205        0.40173
C          7.74433        2.24734        1.10524
C          7.30336        2.60692        2.37571
C          6.22629        1.93501        2.94796
C          5.59602        0.90269        2.26210
C          2.97745        0.10085        0.47679
C          1.66313       -0.31225        0.11469
H          0.68140        1.33436        1.07752
H         -1.75153        1.70997        1.13880
H         -3.43664        3.30696       -0.17693
H         -3.83518        5.41422        1.07851
H         -5.28737        5.40081        3.09070
H         -6.31960        3.27904        3.85710
H         -5.87302        1.16856        2.63379
H         -2.39902       -2.50075       -1.54361
H          0.03877       -2.81562       -1.58580
H          2.47111       -3.17398       -1.66852
H          7.15167       -1.58502       -0.32436
H          7.42396        0.97036       -0.60285
H          8.58057        2.76892        0.65006
H          7.79769        3.40644        2.91831
H          5.88334        2.20258        3.94268
H          4.77984        0.35147        2.71786
H          3.11559        1.01384        1.04672
