45
syn_C_O_diCF3_tetClbenz.log	Energy: -2202617.4987051
C         -3.12360        0.90683        1.24493
C         -1.84178        0.53084        0.86994
C         -0.69095        0.95191        1.61556
C          0.52013        0.54033        1.17966
O          1.71943        0.85182        1.77485
C          0.72338       -0.28691        0.02386
C          2.16726       -0.46504       -0.04963
C          3.04230       -1.13507       -0.89711
Cl         2.41398       -2.02160       -2.24394
C          4.41835       -1.08148       -0.64701
Cl         5.51592       -1.91124       -1.69385
C          2.68402        0.24889        1.03500
C          4.03828        0.32396        1.31285
Cl         4.57998        1.23026        2.67565
C          4.91127       -0.35457        0.45396
Cl         6.60876       -0.29190        0.75890
C         -0.34994       -0.70348       -0.70491
C         -1.66587       -0.30545       -0.30146
C         -2.78240       -0.71115       -1.02043
C         -4.08292       -0.33216       -0.64373
C         -5.20865       -0.74887       -1.38050
C         -6.50097       -0.38225       -1.02274
C         -7.68918       -0.79229       -1.75910
C         -7.43872       -1.67066       -2.97518
F         -6.80311       -2.80238       -2.61276
F         -8.52553       -2.04436       -3.64383
F         -6.64482       -1.03344       -3.85837
C         -8.93139       -0.38506       -1.34044
C        -10.24546       -0.74741       -2.02709
F        -10.30127       -0.29290       -3.28519
F        -10.46545       -2.06801       -2.03515
F        -11.29157       -0.19707       -1.38258
C         -6.66314        0.45147        0.14449
C         -7.98124        0.84194        0.53042
C         -9.06307        0.44376       -0.17755
C         -5.56222        0.86596        0.87651
C         -4.25494        0.49706        0.51709
H         -3.26004        1.53398        2.12247
H         -0.79736        1.57717        2.49497
H         -0.23237       -1.32868       -1.58264
H         -2.65006       -1.33843       -1.89870
H         -5.02354       -1.37172       -2.24452
H         -8.10313        1.46952        1.40854
H        -10.05295        0.75055        0.12982
H         -5.71509        1.49335        1.75126
