30
syn_O_O_2-F_2-F.log	Energy: -652924.8901879
C          1.01288       -1.26792        0.00411
C          2.20444       -0.54033        0.00208
C          3.47469       -1.19704        0.00343
C          4.57733       -0.41056        0.00128
O          5.88191       -0.85352        0.00210
C          4.55419        1.02072       -0.00223
C          5.94700        1.42574       -0.00350
C          6.63102        0.26984       -0.00081
F          7.91921        0.04128       -0.00051
C          3.35032        1.66789       -0.00357
C          2.14434        0.90227       -0.00144
C          0.89206        1.52154       -0.00271
C         -0.30201        0.79635       -0.00069
C         -1.56981        1.45473       -0.00206
C         -2.71317        0.70581       -0.00001
C         -4.13600        0.98849       -0.00042
C         -4.71711       -0.22244        0.00264
F         -5.98057       -0.56200        0.00371
C         -2.61219       -0.72210        0.00348
O         -3.87334       -1.27651        0.00508
C         -1.44567       -1.41020        0.00495
C         -0.23711       -0.64602        0.00283
H          1.05995       -2.35458        0.00677
H          3.54198       -2.27961        0.00608
H          6.36211        2.42089       -0.00602
H          3.29225        2.75240       -0.00622
H          0.84498        2.60839       -0.00537
H         -1.60584        2.54020       -0.00472
H         -4.63593        1.94386       -0.00267
H         -1.41899       -2.49451        0.00761
