61
syn_NPh_NPh_2-Cl_m-CF3benz.log	Energy: -1389602.5236656
C         -3.80913        0.25464        0.47550
C         -2.45467        0.04689        0.21768
C         -1.48325        1.06631        0.45977
C         -0.17370        0.79747        0.19026
N          0.94944        1.61626        0.32533
C          0.94536        2.94326        0.81968
C          0.42091        3.21255        2.08418
C          0.41184        4.51783        2.56360
C          0.94328        5.55141        1.79641
C          1.47467        5.27746        0.53904
C          1.46651        3.97817        0.04281
C          0.25484       -0.46965       -0.34394
C          1.69449       -0.37469       -0.52397
C          2.65844       -1.26551       -0.98313
C          3.98857       -0.86691       -1.01588
C          2.07369        0.91524       -0.10348
C          3.40208        1.32375       -0.11817
C          4.34745        0.41405       -0.58271
C          5.78725        0.83893       -0.68090
F          6.62817       -0.17684       -0.42034
F          6.08701        1.28376       -1.91623
F          6.08207        1.83350        0.17380
C         -0.65441       -1.45748       -0.58350
C         -2.03639       -1.23240       -0.30682
C         -2.99452       -2.21871       -0.53582
C         -4.35436       -2.01296       -0.27615
C         -5.31772       -3.03224       -0.51191
C         -6.64171       -2.79197       -0.24840
C         -7.84070       -3.58505       -0.36515
C         -8.85919       -2.79793        0.05690
Cl       -10.53266       -3.18740        0.10876
C         -7.04052       -1.50760        0.26271
N         -8.42052       -1.53753        0.44579
C         -9.20228       -0.45508        0.93133
C         -9.25347        0.73088        0.20047
C         -9.99262        1.80506        0.68390
C        -10.69150        1.68994        1.88286
C        -10.64139        0.50088        2.60563
C         -9.88785       -0.57066        2.13875
C         -6.15194       -0.49989        0.51505
C         -4.77455       -0.73307        0.24530
H         -4.12820        1.21726        0.86926
H         -1.80077        2.02983        0.84576
H          0.03005        2.39615        2.68335
H          0.00068        4.72463        3.54690
H          0.94349        6.56777        2.17768
H          1.88614        6.07949       -0.06595
H          1.85585        3.75884       -0.94663
H          2.37735       -2.26315       -1.30650
H          4.75437       -1.54898       -1.36748
H          3.69709        2.30765        0.22709
H         -0.34532       -2.41781       -0.98838
H         -2.67536       -3.18136       -0.93009
H         -4.99061       -3.99431       -0.89690
H         -7.92940       -4.59880       -0.72483
H         -8.71544        0.79961       -0.73979
H        -10.03100        2.72957        0.11621
H        -11.27437        2.52711        2.25431
H        -11.18155        0.40899        3.54270
H         -9.82494       -1.49559        2.70269
H         -6.47362        0.45787        0.91229
