53
syn_C_NPh_C_m-CF3benz.log	Energy: -970116.1963026
C         -3.50738        1.27452       -0.04744
C         -2.20161        0.79841       -0.04899
C         -1.08227        1.68709        0.02338
C          0.17260        1.15763        0.02280
N          1.40975        1.80116        0.07231
C          1.60501        3.20147        0.16210
C          1.04130        3.91513        1.21994
C          1.22793        5.29077        1.30062
C          1.99208        5.95285        0.34300
C          2.56139        5.23562       -0.70577
C          2.36036        3.86303       -0.80618
C          0.40786       -0.26359       -0.06532
C          1.85150       -0.44135       -0.06539
C          2.67343       -1.56180       -0.11555
C          4.05144       -1.39267       -0.07698
C          2.42031        0.84416        0.01910
C          3.79686        1.02868        0.07072
C          4.59774       -0.10821        0.01875
C          6.09461        0.04552        0.00630
F          6.70250       -0.93412        0.69735
F          6.58403       -0.00226       -1.24714
F          6.48948        1.21547        0.53620
C         -0.63954       -1.13111       -0.13593
C         -1.97965       -0.63143       -0.12618
C         -3.07180       -1.48810       -0.19369
C         -4.39256       -1.00954       -0.19064
C         -5.50456       -1.87357       -0.25839
C         -6.80223       -1.39029       -0.25516
C         -7.94246       -2.26127       -0.32342
C         -9.20582       -1.76124       -0.31860
C         -7.02631        0.03426       -0.18091
C         -8.38027        0.51428       -0.17900
C         -9.42833       -0.34793       -0.24509
C         -5.94117        0.89224       -0.11406
C         -4.61532        0.41260       -0.11616
H         -3.68007        2.34702        0.00854
H         -1.25079        2.75816        0.07250
H          0.46617        3.38564        1.97307
H          0.78575        5.84430        2.12326
H          2.14363        7.02536        0.41410
H          3.15413        5.74690       -1.45795
H          2.77951        3.29899       -1.63376
H          2.24504       -2.55751       -0.17775
H          4.70846       -2.25437       -0.11117
H          4.23392        2.01629        0.15836
H         -0.47652       -2.20355       -0.20478
H         -2.90112       -2.56105       -0.25131
H         -5.33355       -2.94660       -0.31447
H         -7.77012       -3.33307       -0.37916
H        -10.05920       -2.43062       -0.37058
H         -8.54708        1.58692       -0.12331
H        -10.44675        0.02888       -0.24277
H         -6.11133        1.96534       -0.05833
