48
syn_S_NPh_m-CNbenz_diF.log	Energy: -1142320.9489050
C         -4.28819       -0.87341       -0.92758
C         -5.17073       -1.05863        0.14370
C         -6.57244       -1.18225       -0.06967
C         -7.38317       -1.36679        1.01464
N         -8.76840       -1.49706        1.08421
C         -9.67841       -1.55229       -0.00250
C         -9.45039       -2.44691       -1.04792
C        -10.33216       -2.48703       -2.12231
C        -11.45047       -1.65791       -2.14358
C        -11.68092       -0.77889       -1.08874
C        -10.79202       -0.71388       -0.02165
C         -6.86352       -1.42022        2.35775
C         -8.00310       -1.58745        3.21363
F         -7.97223       -1.68722        4.54326
C         -9.10031       -1.62803        2.42559
F        -10.36538       -1.78040        2.76182
C         -5.51902       -1.30077        2.58647
C         -4.63806       -1.12229        1.48481
C         -3.25604       -0.99902        1.66869
C         -2.38189       -0.81571        0.59872
C         -0.97511       -0.69013        0.79407
C         -0.13809       -0.50991       -0.27067
C          1.31275       -0.36122       -0.27694
C          2.19079       -0.36774        0.80833
C          3.55095       -0.21030        0.59967
C          1.82385       -0.19368       -1.57585
C          3.18388       -0.03468       -1.80346
C          4.04535       -0.04436       -0.70346
C          5.45730        0.11796       -0.91156
N          6.59720        0.24862       -1.07685
C         -0.68215       -0.44686       -1.60117
S          0.57475       -0.21056       -2.81897
C         -2.01797       -0.56159       -1.83683
C         -2.91340       -0.75039       -0.73888
H         -4.68974       -0.82377       -1.93720
H         -6.97356       -1.12272       -1.07631
H         -8.59131       -3.10908       -1.00879
H        -10.15117       -3.18052       -2.93761
H        -12.14168       -1.69785       -2.97950
H        -12.55067       -0.12955       -1.10022
H        -10.95460       -0.01631        0.79292
H         -5.12119       -1.33563        3.59599
H         -2.85403       -1.04705        2.67831
H         -0.58288       -0.74038        1.80673
H          1.81071       -0.49589        1.81707
H          4.24110       -0.21386        1.43594
H          3.57977        0.09459       -2.80490
H         -2.42167       -0.51257       -2.84402
