40
syn_C_O_2-CF3_3-OMe.log	Energy: -813084.1408902
C         -2.45691        1.24995        0.14466
C         -3.63732        0.54452        0.35801
C         -4.90980        1.19921        0.32242
C         -6.01347        0.44013        0.54015
O         -7.30404        0.87496        0.54676
C         -5.96216       -0.96508        0.80003
C         -7.34743       -1.35250        0.96713
O         -7.71074       -2.62067        1.22959
C         -9.10263       -2.82277        1.36201
C         -8.08712       -0.23246        0.80769
C         -4.76840       -1.62237        0.84172
C         -3.56622       -0.88113        0.62043
C         -2.32085       -1.50169        0.65124
C         -1.13086       -0.79088        0.43596
C          0.13290       -1.41822        0.46620
C          1.29920       -0.70630        0.25186
C          2.58703       -1.33949        0.28087
C          3.71763       -0.62002        0.06712
C          5.07158       -1.26685        0.09266
F          5.01384       -2.58313        0.34604
F          5.70832       -1.11148       -1.08345
F          5.86015       -0.71092        1.03182
C          1.23074        0.71186       -0.00930
C          2.45941        1.42574       -0.22858
C          3.65644        0.79076       -0.19301
C         -0.00164        1.33828       -0.04134
C         -1.20079        0.62518        0.17527
H         -2.50754        2.31837       -0.05222
H         -4.97865        2.26400        0.12750
H         -9.24583       -3.88310        1.56984
H         -9.62599       -2.55435        0.43462
H         -9.50653       -2.22624        2.19088
H         -9.14826       -0.04424        0.84472
H         -4.71865       -2.68886        1.03822
H         -2.26780       -2.57016        0.84790
H          0.18543       -2.48676        0.66287
H          2.64009       -2.40549        0.47688
H          2.40902        2.49311       -0.42515
H          4.57870        1.33762       -0.35988
H         -0.05421        2.40677       -0.23810
