54
syn_O_NPh_2-CF3_p-OMebenz.log	Energy: -1040569.1452472
C         -3.42275        1.39351       -0.24739
C         -2.11824        0.90077       -0.18833
C         -0.99555        1.77549       -0.07938
C          0.25555        1.23176       -0.02093
N          1.49402        1.85957        0.07106
C          1.70577        3.25584        0.14128
C          1.08372        4.00711        1.13959
C          1.28618        5.38168        1.19840
C          2.12459        6.00845        0.28011
C          2.75297        5.25499       -0.70790
C          2.53749        3.88336       -0.78742
C          0.47307       -0.19249       -0.08525
C          1.91320       -0.39395       -0.02716
C          2.70440       -1.53206       -0.03483
C          4.09073       -1.39285        0.05452
O          4.79957       -2.55634        0.03568
C          6.20137       -2.47858        0.13353
C          2.49933        0.88265        0.06559
C          3.87371        1.02838        0.16807
C          4.66606       -0.12037        0.15897
C         -0.58403       -1.04609       -0.18944
C         -1.91365       -0.52753       -0.23988
C         -3.01952       -1.36923       -0.34352
C         -4.32852       -0.87740       -0.40118
C         -5.44436       -1.75629       -0.50680
C         -6.70659       -1.22843       -0.56059
C         -8.04640       -1.76722       -0.66500
C         -8.86396       -0.69956       -0.66854
C        -10.35222       -0.61902       -0.75463
F        -10.87118       -1.85114       -0.84011
F        -10.87617       -0.01890        0.32278
F        -10.74668        0.07597       -1.83015
C         -6.88031        0.18795       -0.51022
O         -8.21342        0.49605       -0.57769
C         -5.85992        1.07888       -0.41013
C         -4.53467        0.55200       -0.35211
H         -3.58093        2.46895       -0.21077
H         -1.15345        2.84889       -0.05100
H          0.45103        3.50654        1.86587
H          0.79711        5.96231        1.97465
H          2.28728        7.08039        0.33403
H          3.40307        5.73803       -1.43106
H          3.00234        3.29225       -1.57042
H          2.27745       -2.52727       -0.10441
H          6.56354       -3.50696        0.09950
H          6.51704       -2.01700        1.07876
H          6.63581       -1.91628       -0.70393
H          4.33279        2.00691        0.26020
H          5.74081       -0.00588        0.23796
H         -0.43226       -2.12120       -0.24093
H         -2.86071       -2.44490       -0.38181
H         -5.27800       -2.82916       -0.54298
H         -8.34470       -2.80272       -0.72761
H         -6.03561        2.14856       -0.37517
