39
syn_S_O_2-CF3_benz.log	Energy: -1038921.1944254
C         -3.27808        1.26707        0.66404
C         -1.99675        0.76416        0.44329
C         -0.83582        1.44444        0.93152
C          0.37379        0.88972        0.67388
O          1.58185        1.40431        1.06426
C          0.54828       -0.33210       -0.05557
C          1.98753       -0.54347       -0.09061
C          2.82781       -1.51588       -0.62626
C          4.20100       -1.37562       -0.45272
C          2.54040        0.53937        0.60173
C          3.90219        0.70027        0.78709
C          4.72732       -0.28225        0.24435
C         -0.54058       -0.99990       -0.53114
C         -1.84741       -0.46946       -0.29475
C         -2.98784       -1.11961       -0.76359
C         -4.27397       -0.61480       -0.54227
C         -5.43137       -1.28385       -1.02430
C         -6.67896       -0.76364       -0.79192
C         -7.96767       -1.28141       -1.19152
C         -8.98908       -0.50267       -0.78800
C        -10.44002       -0.76134       -1.04227
F        -10.61065       -1.89402       -1.73845
F        -11.12968       -0.87767        0.10373
F        -11.00505        0.23674       -1.74015
C         -6.81229        0.46437       -0.05675
S         -8.50072        0.92664        0.11026
C         -5.72686        1.13881        0.42421
C         -4.42263        0.61465        0.19307
H         -3.39177        2.19526        1.21916
H         -0.93079        2.37109        1.48709
H          2.41998       -2.36438       -1.16724
H          4.87385       -2.12215       -0.86224
H          4.29847        1.55150        1.32886
H          5.80256       -0.19527        0.36633
H         -0.43676       -1.92774       -1.08686
H         -2.87517       -2.04813       -1.31897
H         -5.31634       -2.21156       -1.57882
H         -8.10066       -2.19674       -1.75479
H         -5.83476        2.06628        0.97899
