40
syn_O_O_3-OMe_tetClbenz.log	Energy: -1850197.2890885
C         -3.30696        1.04212        0.68220
C         -1.99764        0.61702        0.46513
C         -0.88750        1.26999        1.08942
C          0.34983        0.79067        0.82242
O          1.52112        1.29928        1.33723
C          0.61180       -0.32142       -0.04012
C          2.06067       -0.46755       -0.02150
C          2.98114       -1.32217       -0.61748
Cl         2.42194       -2.57723       -1.67105
C          4.34614       -1.15495       -0.35701
Cl         5.49918       -2.21298       -1.09404
C          2.52344        0.54280        0.82743
C          3.86564        0.73722        1.10736
Cl         4.33891        2.01238        2.16765
C          4.78382       -0.12882        0.50216
Cl         6.46902        0.07373        0.82030
C         -0.42981       -0.96205       -0.64821
C         -1.76279       -0.50711       -0.40965
C         -2.85363       -1.13436       -1.01184
C         -4.16864       -0.71049       -0.79650
C         -5.26832       -1.36639       -1.42282
C         -6.53194       -0.90911       -1.17637
C         -7.85987       -1.29221       -1.60676
O         -8.07352       -2.32005       -2.44743
C         -9.43056       -2.55462       -2.76333
C         -8.72327       -0.44095       -1.00821
C         -6.74456        0.20289       -0.30879
O         -8.07273        0.48060       -0.21163
C         -5.73524        0.86730        0.31595
C         -4.40325        0.41484        0.07944
H         -3.48360        1.88882        1.34117
H         -1.03940        2.11624        1.75028
H         -0.26823       -1.80737       -1.30749
H         -2.67619       -1.98118       -1.67091
H         -5.09352       -2.21173       -2.08111
H         -9.87428       -1.67772       -3.25329
H        -10.00593       -2.79361       -1.85906
H         -9.44989       -3.40456       -3.44535
H         -9.79713       -0.34719       -1.03398
H         -5.92743        1.71040        0.97072
