34
syn_C_S_diCl_3-CN.log	Energy: -1367118.8207869
C         -2.40968        1.36188        0.24515
C         -3.60838        0.67395        0.40409
C         -4.85987        1.36143        0.46515
C         -6.00629        0.64336        0.62179
S         -7.65024        1.27179        0.72278
C         -5.99444       -0.79099        0.72797
C         -7.34673       -1.30687        0.88833
C         -7.63519       -2.69778        1.01849
N         -7.83404       -3.83560        1.12158
C         -8.28909       -0.33351        0.90029
C         -4.81379       -1.47579        0.67294
C         -3.58611       -0.76849        0.50979
C         -2.36604       -1.43584        0.45003
C         -1.15593       -0.74516        0.28980
C          0.08139       -1.42271        0.22913
C          1.27387       -0.74123        0.07110
C          2.55852       -1.40409        0.00468
Cl         2.61246       -3.13608        0.12808
C          3.70447       -0.68294       -0.15197
Cl         5.26610       -1.43737       -0.23692
C          1.25108        0.70103       -0.03420
C          2.48907        1.40719       -0.19789
C          3.66866        0.74572       -0.25477
C          0.04402        1.37259        0.02419
C         -1.17951        0.69048        0.18484
H         -2.42410        2.44634        0.16553
H         -4.87339        2.44440        0.38552
H         -9.35617       -0.47785        1.00722
H         -4.80093       -2.55956        0.75279
H         -2.34943       -2.52006        0.52943
H          0.08265       -2.50420        0.30972
H          2.46458        2.49000       -0.27616
H          4.60679        1.27451       -0.37838
H          0.03638        2.45702       -0.05588
