39
syn_C_C_2-F_2-CF3.log	Energy: -804884.0435598
C         -2.40803        0.03027       -1.23777
C         -3.51542        0.23149       -0.40975
C         -4.81651        0.43295       -0.92996
C         -5.90404        0.63100       -0.10436
C         -7.23164        0.83708       -0.62073
C         -8.28497        1.02968        0.20856
C         -5.71688        0.63388        1.32980
C         -6.86262        0.84194        2.17203
C         -8.09235        1.03144        1.63329
C         -9.29883        1.24984        2.49932
F        -10.23078        0.30289        2.28290
F         -9.00746        1.23438        3.80862
F         -9.88292        2.43251        2.23062
C         -4.45568        0.43898        1.85546
C         -3.32901        0.23447        1.02374
C         -2.04819        0.03643        1.54662
C         -0.93979       -0.16496        0.71849
C          0.36026       -0.36626        1.23908
C          1.45016       -0.56477        0.41453
C          2.77347       -0.77006        0.93721
C          3.80315       -0.95959        0.08203
F          5.04547       -1.15301        0.54953
C          1.26189       -0.56757       -1.02155
C          2.40886       -0.77607       -1.86543
C          3.64341       -0.96675       -1.33798
C         -0.00039       -0.37238       -1.54537
C         -1.12677       -0.16786       -0.71461
H         -2.54617        0.02766       -2.31664
H         -4.95510        0.43044       -2.00875
H         -7.37263        0.83504       -1.69798
H         -9.28257        1.18444       -0.18911
H         -6.72502        0.84461        3.24840
H         -4.31739        0.44152        2.93424
H         -1.91011        0.03901        2.62542
H          0.49791       -0.36356        2.31774
H          2.94378       -0.77285        2.00856
H          2.26584       -0.77791       -2.94233
H          4.51820       -1.12533       -1.95890
H         -0.13899       -0.37495       -2.62424
