47
syn_S_NPh_tetClbenz_diF.log	Energy: -2238011.0249486
C         -4.31163       -0.83839       -0.94359
C         -5.18306       -1.04655        0.13267
C         -6.58684       -1.16437       -0.06836
C         -7.38615       -1.37183        1.02041
N         -8.77040       -1.50266        1.10142
C         -9.69063       -1.54109        0.02242
C         -9.47105       -2.41789       -1.03974
C        -10.36273       -2.44158       -2.10638
C        -11.48237       -1.61396       -2.10343
C        -11.70424       -0.75294       -1.03205
C        -10.80550       -0.70424        0.02771
C         -6.85268       -1.45492        2.35660
C         -7.98350       -1.64031        3.22048
F         -7.93915       -1.76843        4.54711
C         -9.08871       -1.66311        2.44308
F        -10.35041       -1.82197        2.78855
C         -5.50573       -1.34176        2.57356
C         -4.63630       -1.14026        1.46666
C         -3.25232       -1.02314        1.63917
C         -2.38964       -0.81739        0.56354
C         -0.98174       -0.70033        0.75943
C         -0.13527       -0.49674       -0.29899
C          1.32640       -0.34648       -0.34669
C          2.28804       -0.36723        0.67228
Cl         1.82613       -0.60235        2.32829
C          3.64716       -0.19877        0.37897
Cl         4.82213       -0.22662        1.64815
C          1.77911       -0.15147       -1.66580
C          3.12437        0.01692       -1.97063
Cl         3.58968        0.25124       -3.62174
C          4.06894       -0.00594       -0.94546
Cl         5.74355        0.20220       -1.31071
C         -0.70595       -0.40334       -1.62028
S          0.50619       -0.14117       -2.86867
C         -2.04214       -0.50929       -1.85447
C         -2.93576       -0.72166       -0.76289
H         -4.72245       -0.76558       -1.94802
H         -6.99876       -1.08282       -1.06906
H         -8.61070       -3.07924       -1.01970
H        -10.18837       -3.12114       -2.93476
H        -12.18127       -1.64108       -2.93344
H        -12.57498       -0.10488       -1.02463
H        -10.96137       -0.02056        0.85527
H         -5.09708       -1.39906        3.57770
H         -2.83946       -1.09413        2.64292
H         -0.60711       -0.77753        1.77048
H         -2.44341       -0.43456       -2.86116
