37
syn_C_S_3-CF3_3-CN.log	Energy: -1001780.8062615
C         -2.43483        1.36885        0.28390
C         -3.63499        0.68384        0.44079
C         -4.88234        1.37591        0.53281
C         -6.03051        0.66024        0.68617
S         -7.67010        1.29445        0.82125
C         -6.02522       -0.77639        0.75869
C         -7.37842       -1.28884        0.92299
C         -7.67381       -2.68067        1.02425
N         -7.87867       -3.81935        1.10329
C         -8.31545       -0.31134        0.96870
C         -4.84901       -1.46558        0.67360
C         -3.61930       -0.76102        0.51235
C         -2.40393       -1.43280        0.42227
C         -1.19146       -0.74502        0.26380
C          0.04018       -1.42852        0.17236
C          1.23799       -0.75173        0.01612
C          2.52519       -1.40837       -0.08259
C          2.60724       -2.91050       -0.01528
F          1.89555       -3.49381       -0.99914
F          3.86685       -3.35840       -0.12426
F          2.11963       -3.38537        1.14723
C          3.66711       -0.68681       -0.23542
C          1.21873        0.69289       -0.05442
C          2.45670        1.40257       -0.21640
C          3.63681        0.74034       -0.30381
C          0.01636        1.37146        0.03407
C         -1.20848        0.69273        0.19311
H         -2.44410        2.45500        0.22993
H         -4.89108        2.46053        0.47864
H         -9.38193       -0.45284        1.08478
H         -4.84094       -2.55098        0.72793
H         -2.39206       -2.51870        0.47592
H          0.02212       -2.51051        0.22797
H          4.62029       -1.19721       -0.30731
H          2.42414        2.48753       -0.26748
H          4.56862        1.28241       -0.42622
H          0.01354        2.45764       -0.02037
