49
syn_O_NPh_benz_diCN.log	Energy: -873009.3485010
C         -4.10754       -1.25779       -0.86227
C         -5.07859       -0.89688        0.08348
C         -6.45872       -1.13539       -0.15062
C         -7.35149       -0.76092        0.81774
N         -8.73985       -0.86680        0.83835
C         -9.54341       -1.45029       -0.18265
C         -9.31121       -2.77176       -0.55996
C        -10.08689       -3.34072       -1.56350
C        -11.09849       -2.60086       -2.17102
C        -11.32940       -1.28493       -1.78070
C        -10.54511       -0.69953       -0.79252
C         -6.94227       -0.12976        2.03613
C         -8.14934        0.13660        2.78192
C         -8.23395        0.74960        4.05708
N         -8.26182        1.25576        5.10050
C         -9.19819       -0.32393        2.02137
C        -10.58304       -0.29954        2.34876
N        -11.70895       -0.26927        2.62101
C         -5.61436        0.11082        2.28285
C         -4.65238       -0.27090        1.31391
C         -3.28288       -0.04848        1.52070
C         -2.32408       -0.40953        0.58015
C         -0.93110       -0.17326        0.81140
C         -0.02482       -0.54147       -0.13601
C          1.42296       -0.47112       -0.26468
C          2.46074        0.00245        0.53348
C          3.76450       -0.10423        0.05968
C          1.71492       -1.03663       -1.51043
C          3.00259       -1.15356       -2.00285
C          4.02820       -0.67440       -1.19067
C         -0.47250       -1.15985       -1.35157
O          0.58594       -1.45274       -2.17005
C         -1.77365       -1.41113       -1.63187
C         -2.75037       -1.03469       -0.65330
H         -4.42818       -1.72743       -1.78918
H         -6.78257       -1.59807       -1.07725
H         -8.53479       -3.34366       -0.06168
H         -9.90894       -4.36935       -1.86050
H        -11.70843       -3.05132       -2.94759
H        -12.11683       -0.70550       -2.25154
H        -10.70605        0.33166       -0.49513
H         -5.29715        0.59069        3.20431
H         -2.96357        0.42246        2.44759
H         -0.62026        0.29668        1.74030
H          2.25681        0.44497        1.50375
H          4.58818        0.25864        0.66591
H          3.19465       -1.59709       -2.97314
H          5.05419       -0.74621       -1.53810
H         -2.07574       -1.88030       -2.56189
