54
syn_C_NPh_diF_p-OMebenz.log	Energy: -955018.9524638
C         -3.46764        1.29856       -0.05819
C         -2.16038        0.82698       -0.04780
C         -1.04466        1.71921        0.02877
C          0.21382        1.19562        0.03982
N          1.44547        1.84126        0.09344
C          1.63790        3.24000        0.16853
C          1.03923        3.97299        1.19439
C          1.22210        5.35004        1.25841
C          2.01812        5.99776        0.31719
C          2.62343        5.26263       -0.69866
C          2.42684        3.88844       -0.78284
C          0.45211       -0.22748       -0.04280
C          1.89701       -0.40513       -0.03605
C          2.70484       -1.53029       -0.07948
C          4.09138       -1.36968       -0.03707
O          4.81703       -2.52147       -0.08895
C          6.22006       -2.42224       -0.03870
C          2.46530        0.88010        0.04590
C          3.83967        1.04705        0.10175
C          4.64943       -0.08903        0.05674
C         -0.59134       -1.09767       -0.11641
C         -1.93425       -0.60284       -0.11697
C         -3.02190       -1.46354       -0.18798
C         -4.34496       -0.98963       -0.19675
C         -5.44964       -1.86149       -0.26840
C         -6.74376       -1.37216       -0.27664
C         -7.88175       -2.23718       -0.34842
F         -7.67385       -3.55892       -0.40863
C         -9.14417       -1.74159       -0.35588
F        -10.19588       -2.56748       -0.42351
C         -6.98288        0.05013       -0.21185
C         -8.33798        0.52585       -0.22282
C         -9.38317       -0.33925       -0.29239
C         -5.89841        0.90867       -0.14127
C         -4.57195        0.43209       -0.13101
H         -3.64461        2.37067       -0.00866
H         -1.21856        2.78967        0.07056
H          0.44004        3.45632        1.93759
H          0.75146        5.91629        2.05640
H          2.16588        7.07166        0.37499
H          3.24032        5.76199       -1.43962
H          2.87344        3.31137       -1.58666
H          2.29125       -2.53161       -0.14154
H          6.59675       -3.44451       -0.09245
H          6.56069       -1.96191        0.89843
H          6.61649       -1.84763       -0.88659
H          4.28646        2.03200        0.18531
H          5.72429        0.04245        0.09933
H         -0.42346       -2.16956       -0.18122
H         -2.84745       -2.53602       -0.23939
H         -5.27982       -2.93236       -0.31779
H         -8.51449        1.59612       -0.17433
H        -10.41294        0.00104       -0.30184
H         -6.07214        1.98128       -0.09236
