34
syn_S_S_2-Cl_2-OMe.log	Energy: -1293995.8189200
C          1.10981       -1.28287       -0.00201
C          2.27217       -0.51075       -0.00136
C          3.56715       -1.11082       -0.00102
C          4.67042       -0.31293       -0.00039
S          6.34619       -0.85498        0.00011
C          4.58668        1.12607       -0.00004
C          5.89121        1.74066        0.00063
C          6.89553        0.83721        0.00078
O          8.19468        1.15662        0.00133
C          9.15321        0.11244        0.00169
C          3.34971        1.71701       -0.00036
C          2.16464        0.92651       -0.00102
C          0.89380        1.50563       -0.00136
C         -0.27205        0.73474       -0.00201
C         -1.56398        1.33238       -0.00235
C         -2.69105        0.55286       -0.00299
C         -4.07807        0.96569       -0.00342
C         -4.91907       -0.08426       -0.00403
Cl        -6.64058       -0.00947       -0.00468
C         -2.56181       -0.88109       -0.00332
S         -4.14074       -1.66200       -0.00414
C         -1.34489       -1.49622       -0.00302
C         -0.16064       -0.70186       -0.00235
H          1.19502       -2.36738       -0.00227
H          3.64893       -2.19408       -0.00128
H          6.06575        2.80883        0.00099
H         10.12684        0.60209        0.00218
H          9.05917       -0.51045       -0.89554
H          9.05832       -0.51062        0.89870
H          3.26030        2.80009       -0.00010
H          0.80851        2.59007       -0.00110
H         -1.64532        2.41619       -0.00210
H         -4.40447        1.99821       -0.00328
H         -1.25607       -2.57885       -0.00327
