36
syn_S_O_diCl_tetFbenz.log	Energy: -1653254.8216718
C         -3.39227        1.28052        0.39391
C         -2.09766        0.78055        0.25903
C         -0.95677        1.57063        0.61176
C          0.26545        1.01002        0.45090
O          1.46544        1.61938        0.73731
C          0.46907       -0.31646       -0.04805
C          1.91027       -0.49158       -0.05118
C          2.76836       -1.52035       -0.40703
F          2.29373       -2.67670       -0.87090
C          4.13803       -1.33784       -0.27607
F          4.98529       -2.30882       -0.60992
C          2.43403        0.71171        0.43277
C          3.79617        0.91581        0.57145
F          4.29841        2.05797        1.03087
C          4.64222       -0.12854        0.20941
F          5.95702        0.02238        0.32602
C         -0.59713       -1.09270       -0.39232
C         -1.91554       -0.56063       -0.24668
C         -3.03810       -1.31590       -0.58535
C         -4.33607       -0.81409       -0.44997
C         -5.47433       -1.59251       -0.79826
C         -6.73117       -1.07069       -0.65305
C         -8.01313       -1.68183       -0.94371
Cl        -8.14952       -3.28347       -1.56539
C         -9.05971       -0.87192       -0.67872
Cl       -10.72007       -1.23370       -0.89075
C         -6.90144        0.26304       -0.14884
S         -8.60211        0.70572       -0.05262
C         -5.83607        1.04209        0.19620
C         -4.51692        0.52216        0.05426
H         -3.53139        2.28956        0.77446
H         -1.07645        2.57881        0.99270
H         -0.45989       -2.09983       -0.77197
H         -2.90008       -2.32510       -0.96615
H         -5.33828       -2.60056       -1.17903
H         -5.97175        2.05015        0.57693
