36
syn_S_O_2-OMe_diCN.log	Energy: -918648.2043186
C          1.14384       -1.26116        0.00021
C          2.29848       -0.47274       -0.00008
C          3.59663       -1.06530        0.00128
C          4.66009       -0.22172        0.00086
O          5.98459       -0.58934        0.00198
C          4.54761        1.19733       -0.00082
C          5.91635        1.67535       -0.00070
C          6.35141        3.02658       -0.00206
N          6.66974        4.14104       -0.00318
C          6.70088        0.56166        0.00105
C          8.11820        0.44828        0.00191
N          9.27427        0.37464        0.00258
C          3.31667        1.79418       -0.00214
C          2.15800        0.96707       -0.00179
C          0.87396        1.52367       -0.00309
C         -0.27608        0.73459       -0.00280
C         -1.57982        1.30970       -0.00413
C         -2.69538        0.51377       -0.00382
C         -4.08566        0.89312       -0.00500
C         -4.91826       -0.17129       -0.00426
O         -6.25123       -0.08217       -0.00499
C         -7.01704       -1.27599       -0.00470
C         -2.52846       -0.91946       -0.00212
S         -4.08371       -1.74306       -0.00201
C         -1.30466       -1.51534       -0.00081
C         -0.13248       -0.70022       -0.00111
H          1.24574       -2.34384        0.00149
H          3.71907       -2.14267        0.00259
H          3.21393        2.87516       -0.00344
H          0.77164        2.60629       -0.00437
H         -1.67811        2.39180       -0.00540
H         -4.44264        1.91479       -0.00636
H         -8.05986       -0.95993       -0.00583
H         -6.81761       -1.87192        0.89342
H         -6.81610       -1.87335       -0.90152
H         -1.19837       -2.59632        0.00045
