41
syn_C_O_3-OMe_3-OMe.log	Energy: -673485.0911966
C         -2.63358        1.30152        0.36447
C         -3.84495        0.63181        0.51114
C         -5.07888        1.34690        0.63593
C         -6.21638        0.61994        0.77530
O         -7.47994        1.11412        0.90734
C         -6.23725       -0.80911        0.80256
C         -7.63627       -1.14665        0.96404
O         -8.06472       -2.42061        1.03371
C         -9.46029       -2.56695        1.19148
C         -8.31566        0.02055        1.01933
C         -5.08140       -1.52364        0.68652
C         -3.84700       -0.81876        0.53689
C         -2.63764       -1.49821        0.41437
C         -1.41773       -0.82330        0.26677
C         -0.19166       -1.51420        0.14275
C          1.00273       -0.83701       -0.00195
C          2.26505       -1.53679       -0.12964
O          2.15498       -2.88611       -0.09324
C          3.33561       -3.64628       -0.21048
C          3.43376       -0.84816       -0.27170
C          1.01360        0.60654       -0.02884
C          2.26947        1.28878       -0.18050
C          3.42223        0.58382       -0.29597
C         -0.18318        1.28944        0.09204
C         -1.41523        0.61656        0.24101
H         -2.62960        2.38906        0.34479
H         -5.09335        2.43141        0.61847
H         -9.66000       -3.63783        1.23125
H         -9.99807       -2.12242        0.34327
H         -9.80007       -2.09328        2.12231
H         -9.36251        0.25367        1.13184
H         -5.08555       -2.60914        0.70601
H         -2.63810       -2.58585        0.43364
H         -0.19173       -2.59901        0.16202
H          3.83528       -3.46057       -1.16973
H          3.02887       -4.69140       -0.15736
H          4.03275       -3.42808        0.60851
H          4.38266       -1.36214       -0.36795
H          2.27322        2.37472       -0.20031
H          4.36941        1.10268       -0.41046
H         -0.17878        2.37704        0.07221
