33
syn_C_S_diF_2-F.log	Energy: -919230.7772446
C          0.94197       -1.58385        0.56234
C         -0.20386       -0.85054        0.28148
C         -1.50980       -1.37821        0.53367
C         -2.60235       -0.62351        0.24241
S         -4.28871       -1.08849        0.47690
C         -2.49413        0.70535       -0.31808
C         -3.79502        1.30311       -0.53866
C         -4.78112        0.47371       -0.16767
F         -6.08073        0.71269       -0.23792
C         -1.25628        1.22816       -0.56656
C         -0.07636        0.47649       -0.27866
C          1.19294        0.98816       -0.52338
C          2.35563        0.25219       -0.24197
C          3.64382        0.76935       -0.48972
C          4.77567        0.02735       -0.20542
C          6.09306        0.53193       -0.44881
F          6.21819        1.75992       -0.96687
C          7.19385       -0.20776       -0.16525
F          8.41642        0.28170       -0.40035
C          4.65669       -1.29879        0.35389
C          5.85246       -2.04251        0.63710
C          7.07913       -1.51599        0.38641
C          3.39347       -1.80942        0.59855
C          2.22649       -1.07064        0.31637
H          0.84529       -2.58196        0.98373
H         -1.60378       -2.37515        0.95449
H         -3.96177        2.29024       -0.94926
H         -1.15526        2.22490       -0.98745
H          1.29132        1.98601       -0.94459
H          3.74561        1.76473       -0.90991
H          5.75885       -3.03911        1.05758
H          7.99327       -2.06162        0.59323
H          3.29533       -2.80735        1.01976
