39
syn_C_O_tetClbenz_2-Cl.log	Energy: -2068121.2237281
C          1.04954       -1.74685        0.75213
C          0.07049       -0.90024        0.23088
C         -1.32007       -1.16587        0.42929
C         -2.20149       -0.28803       -0.10933
O         -3.56851       -0.37237       -0.02659
C         -1.83151        0.87481       -0.85575
C         -3.08354        1.50056       -1.22641
C         -4.03960        0.71001       -0.70396
Cl        -5.73959        0.84846       -0.75565
C         -0.50764        1.14978       -1.05886
C          0.47772        0.26861       -0.51971
C          1.84073        0.51088       -0.70444
C          2.81770       -0.34495       -0.18892
C          4.20100       -0.10430       -0.40376
C          5.18222       -0.94619        0.07167
C          6.63010       -0.74351       -0.15410
C          7.18915        0.03199       -1.19774
Cl         6.24253        0.56745       -2.55997
C          8.55423        0.32031       -1.24146
Cl         9.20827        1.31538       -2.49644
C          7.53657       -1.39303        0.72658
C          8.91070       -1.08754        0.67391
Cl        10.00292       -1.81776        1.81425
C          9.41964       -0.20844       -0.27132
Cl        11.09940        0.19485       -0.29232
C          4.76232       -2.03803        0.92469
C          5.75867       -2.77406        1.65987
C          7.05411       -2.42246        1.62593
C          3.42782       -2.30472        1.12453
C          2.41118       -1.49632        0.56219
H          0.74555       -2.62064        1.32368
H         -1.64650       -2.03581        0.98852
H         -3.23784        2.40353       -1.79652
H         -0.19058        2.02313       -1.62098
H          2.14917        1.38515       -1.27315
H          4.45435        0.79272       -0.94910
H          5.42904       -3.58810        2.29917
H          7.77555       -2.94770        2.23739
H          3.14407       -3.13201        1.77085
