50
syn_S_S_p-OMebenz_m-OMebenz.log	Energy: -1270228.4784045
C         -3.53916        1.28308        0.00015
C         -4.58070        0.35357       -0.00045
C         -5.94944        0.76065       -0.00124
C         -6.93117       -0.18332       -0.00179
S         -8.66969        0.12578       -0.00278
C         -6.63396       -1.59114       -0.00160
C         -7.85200       -2.39413       -0.00228
C         -7.99003       -3.77867       -0.00233
C         -9.24988       -4.36634       -0.00303
C         -9.01616       -1.60476       -0.00295
C        -10.28128       -2.16680       -0.00364
C        -10.39581       -3.55963       -0.00368
O        -11.66476       -4.03575       -0.00439
C        -11.85415       -5.43327       -0.00438
C         -5.33046       -2.00128       -0.00085
C         -4.26722       -1.05102       -0.00025
C         -2.92811       -1.44591        0.00055
C         -1.88550       -0.51643        0.00115
C         -0.51934       -0.92224        0.00198
C          0.48365        0.00571        0.00258
C          1.92868       -0.20906        0.00347
C          2.61636       -1.41640        0.00390
C          4.01105       -1.41953        0.00476
O          4.59392       -2.64698        0.00514
C          6.00135       -2.71444        0.00597
C          2.64378        1.00054        0.00389
C          4.03031        1.00189        0.00475
C          4.71683       -0.21025        0.00519
C          0.15596        1.40598        0.00236
S          1.59633        2.42461        0.00323
C         -1.13610        1.83988        0.00158
C         -2.19951        0.88786        0.00095
H         -3.77736        2.34439       -0.00000
H         -6.18441        1.82121       -0.00139
H         -7.10845       -4.41346       -0.00183
H         -9.32942       -5.44665       -0.00305
H        -11.18363       -1.56530       -0.00416
H        -12.93341       -5.58904       -0.00494
H        -11.42224       -5.89803        0.89106
H        -11.42129       -5.89816       -0.89930
H         -5.08319       -3.06000       -0.00069
H         -2.68964       -2.50737        0.00070
H         -0.28958       -1.98481        0.00213
H          2.09445       -2.36790        0.00359
H          6.25120       -3.77604        0.00610
H          6.42793       -2.24360        0.90126
H          6.42898       -2.24357       -0.88880
H          4.58692        1.93379        0.00509
H          5.80028       -0.19706        0.00586
H         -1.37649        2.89921        0.00142
