65
syn_NPh_NPh_2-OMe_p-CF3benz.log	Energy: -1173058.8689256
C         -3.74226        0.57911        0.30744
C         -2.38427        0.30995        0.12759
C         -1.38178        1.27317        0.45545
C         -0.07287        0.94495        0.25826
N          1.08080        1.70488        0.48212
C          1.10799        3.01798        1.01140
C          0.52457        3.28002        2.25138
C          0.54556        4.57220        2.76470
C          1.16402        5.59932        2.05621
C          1.75293        5.33245        0.82314
C          1.71659        4.04718        0.29271
C          0.32571       -0.32707       -0.28202
C          1.77686       -0.29822       -0.37138
C          2.71777       -1.22328       -0.80247
C          4.06583       -0.88267       -0.75032
C          5.11615       -1.87147       -1.16223
F          4.61476       -2.85861       -1.92494
F          6.10532       -1.28599       -1.86396
F          5.70010       -2.45787       -0.09836
C          2.19228        0.96146        0.10519
C          3.54182        1.30330        0.17291
C          4.46837        0.36687       -0.26196
C         -0.61481       -1.26245       -0.60194
C         -1.99774       -0.97485       -0.40348
C         -2.98915       -1.90637       -0.71726
C         -4.34882       -1.63820       -0.53690
C         -5.34959       -2.59702       -0.86883
C         -6.67227       -2.29971       -0.67802
C         -7.89929       -3.01949       -0.91731
C         -8.90967       -2.18834       -0.53873
O        -10.23559       -2.34143       -0.53312
C        -10.69747       -3.60259       -0.98324
C         -7.03684       -1.01308       -0.13869
N         -8.42920       -0.97350       -0.06604
C         -9.20996        0.08495        0.46342
C         -8.93069        0.57503        1.73925
C         -9.67763        1.62965        2.25296
C        -10.71551        2.18232        1.50778
C        -10.99873        1.68106        0.23991
C        -10.24268        0.64170       -0.28995
C         -6.11806       -0.05729        0.18303
C         -4.73603       -0.35254       -0.00732
H         -4.03810        1.54771        0.70522
H         -1.67571        2.24237        0.84622
H          0.06367        2.46780        2.80468
H          0.08820        4.77336        3.72861
H          1.18616        6.60523        2.46372
H          2.23108        6.13020        0.26304
H          2.15019        3.83421       -0.67955
H          2.40963       -2.19406       -1.17551
H          3.86091        2.26708        0.55405
H          5.52569        0.60849       -0.22680
H         -0.32820       -2.22720       -1.01298
H         -2.69310       -2.87382       -1.11801
H         -5.04707       -3.55736       -1.27795
H         -7.99640       -4.01711       -1.31692
H        -11.78408       -3.57148       -0.90873
H        -10.30203       -4.40630       -0.35168
H        -10.39883       -3.77535       -2.02371
H         -8.13352        0.12329        2.32115
H         -9.45437        2.01089        3.24477
H        -11.30211        3.00069        1.91370
H        -11.80551        2.10910       -0.34725
H        -10.44744        0.25566       -1.28228
H         -6.41349        0.91307        0.56973
