63
syn_NPh_NPh_diCN_p-CF3benz.log	Energy: -1216935.0871720
C         -3.89691        0.61952        0.20474
C         -2.53685        0.35070        0.07023
C         -1.54821        1.33292        0.38643
C         -0.23361        1.00469        0.23744
N          0.90522        1.77757        0.46436
C          0.90934        3.11287        0.94059
C          0.31198        3.41513        2.16422
C          0.31029        4.72744        2.62446
C          0.91978        5.73325        1.87864
C          1.52317        5.42549        0.66213
C          1.51002        4.11916        0.18458
C          0.18860       -0.28842       -0.24118
C          1.64179       -0.25183       -0.29007
C          2.60096       -1.18807       -0.65146
C          3.94411       -0.83705       -0.56353
C          5.01024       -1.80060       -0.99776
F          4.56379       -3.06774       -1.03357
F          5.47235       -1.51267       -2.22991
F          6.07369       -1.77158       -0.17362
C          2.03348        1.02752        0.14951
C          3.37694        1.38221        0.24969
C          4.32254        0.43456       -0.11444
C         -0.73475       -1.24113       -0.54969
C         -2.12683       -0.95387       -0.40040
C         -3.09839       -1.90233       -0.70368
C         -4.46822       -1.63521       -0.56867
C         -5.44392       -2.61290       -0.88901
C         -6.77212       -2.30494       -0.73909
C         -7.99010       -3.04167       -0.98034
C         -8.08957       -4.37311       -1.45642
N         -8.12998       -5.46418       -1.84844
C         -9.03284       -2.20722       -0.65404
C        -10.42508       -2.49745       -0.70782
N        -11.55692       -2.74026       -0.76089
C         -7.16860       -1.01394       -0.26229
N         -8.56039       -0.98488       -0.22029
C         -9.35563        0.11396        0.21354
C         -9.16737        0.62624        1.49598
C         -9.93515        1.70511        1.91899
C        -10.89630        2.25471        1.07399
C        -11.08404        1.73007       -0.20149
C        -10.30635        0.66453       -0.64209
C         -6.26236       -0.03577        0.04771
C         -4.88056       -0.33180       -0.09863
H         -4.20786        1.60051        0.55664
H         -1.85635        2.31460        0.73179
H         -0.14117        2.61912        2.74687
H         -0.15720        4.96145        3.57592
H          0.92438        6.75509        2.24481
H          1.99507        6.20666        0.07427
H          1.95650        3.87216       -0.77375
H          2.31201       -2.17752       -0.98907
H          3.67704        2.36068        0.60804
H          5.37693        0.68017       -0.04212
H         -0.43261       -2.21961       -0.91353
H         -2.78829       -2.88263       -1.05842
H         -5.13615       -3.58940       -1.25206
H         -8.43110        0.17282        2.15210
H         -9.79142        2.10699        2.91690
H        -11.50082        3.09076        1.41100
H        -11.83220        2.15516       -0.86259
H        -10.43334        0.26120       -1.64154
H         -6.57581        0.94441        0.39208
