55
syn_O_NPh_p-CNbenz_m-CNbenz.log	Energy: -969400.8609283
C         -3.51510        0.96554        0.04509
C         -4.58498        0.06533        0.01740
C         -5.93694        0.51800        0.02503
C         -6.93561       -0.41269       -0.00619
N         -8.31729       -0.23114        0.00635
C         -8.98391        1.02052        0.03042
C         -8.75524        1.94771       -0.98605
C         -9.40473        3.17696       -0.95516
C        -10.29565        3.47388        0.07317
C        -10.52828        2.54133        1.08052
C         -9.86554        1.31847        1.06900
C         -6.66576       -1.82610       -0.03196
C         -7.95730       -2.49160       -0.03577
C         -8.33875       -3.82910       -0.06549
C         -9.68921       -4.14842       -0.07494
C         -8.93640       -1.47697       -0.01145
C        -10.29248       -1.77418       -0.03170
C        -10.65192       -3.12518       -0.06096
C        -12.04614       -3.47289       -0.07742
N        -13.17090       -3.75348       -0.08863
C         -5.37869       -2.28071       -0.03963
C         -4.30069       -1.34855       -0.01849
C         -2.97028       -1.77432       -0.02699
C         -1.90371       -0.87461       -0.00037
C         -0.54975       -1.32953       -0.00911
C          0.46095       -0.41441        0.01885
C          1.91467       -0.47788        0.02143
C          2.85078       -1.50103       -0.00410
C          4.20735       -1.15736        0.00937
C          5.20005       -2.19447       -0.01659
N          6.00053       -3.03284       -0.03774
C          2.34705        0.85538        0.05951
C          3.68411        1.21745        0.07352
C          4.61544        0.18760        0.04778
C          0.15535        0.98286        0.05642
O          1.30692        1.73535        0.08059
C         -1.10543        1.47906        0.06641
C         -2.18620        0.54108        0.03755
H         -3.72646        2.03186        0.07388
H         -6.14933        1.58174        0.05981
H         -8.07565        1.69615       -1.79436
H         -9.22421        3.89896       -1.74547
H        -10.80841        4.43044        0.08905
H        -11.21869        2.76947        1.88647
H        -10.02148        0.59388        1.86241
H         -7.59098       -4.61582       -0.08378
H        -10.01247       -5.18295       -0.09593
H        -11.04957       -0.99837       -0.02944
H         -5.15943       -3.34508       -0.05713
H         -2.75920       -2.84115       -0.05423
H         -0.34716       -2.39659       -0.03762
H          2.55065       -2.54300       -0.03379
H          3.98404        2.25826        0.10323
H          5.67538        0.41697        0.05724
H         -1.29844        2.54589        0.09543
