52
syn_C_NPh_2-OMe_2-OMe.log	Energy: -805970.6284894
C          1.08378       -1.86923        0.20368
C         -0.05539       -1.08663        0.06299
C         -1.36515       -1.65996        0.12030
C         -2.43993       -0.83966       -0.03147
N         -3.80370       -1.13744       -0.00133
C         -4.37459       -2.43147        0.09384
C         -3.96092       -3.43261       -0.78534
C         -4.49874       -4.71066       -0.67980
C         -5.46336       -4.98817        0.28482
C         -5.88285       -3.98219        1.15143
C         -5.33404       -2.70761        1.06724
C         -2.31662        0.58749       -0.22875
C         -3.65644        1.11563       -0.31763
C         -4.49718        0.05347       -0.17692
O         -5.82827       -0.03606       -0.19065
C         -6.51215        1.18494       -0.41049
C         -1.07468        1.15478       -0.28333
C          0.09233        0.34074       -0.14533
C          1.37071        0.88551       -0.20121
C          2.52673        0.09852       -0.06110
C          3.82282        0.64893       -0.11798
C          4.95761       -0.13670        0.02224
C          6.27726        0.41077       -0.03388
C          7.37790       -0.38316        0.10709
O          8.59250        0.22742        0.03939
C          9.75593       -0.55420        0.17915
C          4.80323       -1.55671        0.23222
C          5.98788       -2.34886        0.37468
C          7.22872       -1.79550        0.31626
C          3.53432       -2.11018        0.28993
C          2.37663       -1.32068        0.14838
H          0.97479       -2.94032        0.36180
H         -1.47739       -2.72673        0.28713
H         -3.22416       -3.20150       -1.54811
H         -4.17055       -5.48786       -1.36327
H         -5.88710       -5.98479        0.36107
H         -6.63333       -4.19247        1.90741
H         -5.64427       -1.92315        1.74846
H         -3.93568        2.14738       -0.46535
H         -7.57437        0.94231       -0.40493
H         -6.23152        1.61524       -1.37856
H         -6.28827        1.90281        0.38704
H         -0.95607        2.22548       -0.42636
H          1.48186        1.95646       -0.35790
H          3.93187        1.71963       -0.27621
H          6.41250        1.47640       -0.19119
H         10.59297        0.13989        0.09085
H          9.83706       -1.31235       -0.61068
H          9.80315       -1.04624        1.15939
H          5.87965       -3.41877        0.53326
H          8.10157       -2.42830        0.42864
H          3.42519       -3.18127        0.44855
