46
syn_O_O_diCF3_p-OMebenz.log	Energy: -1119525.0481052
C         -3.24251        1.27009        0.73925
C         -1.94615        0.78765        0.56940
C         -0.83162        1.40046        1.22605
C          0.39775        0.87148        1.00860
O          1.56508        1.33038        1.55293
C          0.63332       -0.26186        0.16066
C          2.07123       -0.48041        0.21868
C          2.94061       -1.39414       -0.35717
C          4.30359       -1.29545       -0.06348
O          5.09649       -2.22343       -0.66317
C          6.48151       -2.18019       -0.40941
C          2.56298        0.51311        1.07319
C          3.90289        0.62799        1.37611
C          4.77693       -0.29327        0.79510
C         -0.40954       -0.86414       -0.47606
C         -1.73319       -0.35496       -0.28941
C         -2.82799       -0.93987       -0.92134
C         -4.13185       -0.45727       -0.75351
C         -5.23217       -1.07593       -1.41056
C         -6.48898       -0.56505       -1.21927
C         -7.82494       -0.89148       -1.68363
C         -8.18575       -1.98346       -2.63842
F         -7.27233       -2.96960       -2.58776
F         -9.37722       -2.52686       -2.35805
F         -8.22599       -1.54649       -3.90526
C         -8.64419        0.02717       -1.12634
C        -10.13573        0.22132       -1.19155
F        -10.60574       -0.11680       -2.39555
F        -10.76166       -0.52731       -0.27564
F        -10.44758        1.49883       -0.96233
C         -6.66827        0.56142       -0.36744
O         -7.99512        0.90314       -0.32188
C         -5.66236        1.19401        0.29058
C         -4.34397        0.68437        0.10496
H         -3.40460        2.12968        1.38506
H         -0.97535        2.25856        1.87358
H          2.59807       -2.17794       -1.02422
H          6.91734       -2.99982       -0.98180
H          6.70227       -2.32744        0.65596
H          6.92428       -1.23245       -0.74287
H          4.26610        1.40393        2.04028
H          5.83352       -0.21742        1.02244
H         -0.25679       -1.72337       -1.12316
H         -2.66674       -1.80000       -1.56719
H         -5.06189       -1.93503       -2.04950
H         -5.84658        2.05048        0.92961
