42
syn_S_S_2-OMe_diOMe.log	Energy: -1149285.0891589
C          0.91374       -1.38272        0.63320
C          2.09614       -0.65981        0.45910
C          3.36743       -1.21828        0.78854
C          4.49470       -0.47593        0.59760
S          6.15555       -0.96079        0.93345
C          4.43372        0.86189        0.07734
C          5.75119        1.45250       -0.01775
O          5.93460        2.72526       -0.47970
C          6.35206        3.63938        0.52801
C          6.73742        0.61961        0.38908
O          8.06399        0.84669        0.44084
C          8.65408        1.20619       -0.80952
C          3.22794        1.42187       -0.24515
C          2.02520        0.68095       -0.06565
C          0.77527        1.21813       -0.38449
C         -0.40832        0.49669       -0.21044
C         -1.67978        1.04984       -0.53705
C         -2.82822        0.32289       -0.35752
C         -4.19567        0.69668       -0.62405
C         -5.07478       -0.28337       -0.32262
O         -6.40045       -0.17881       -0.47674
C         -7.21361       -1.29188       -0.14845
C         -2.72961       -1.01490        0.16871
S         -4.31858       -1.76133        0.31682
C         -1.53789       -1.58711        0.49534
C         -0.33347       -0.84314        0.31426
H          0.96648       -2.39481        1.02893
H          3.41510       -2.22881        1.18477
H          6.40830        4.61938        0.05076
H          7.33592        3.36633        0.92701
H          5.62565        3.67004        1.34851
H          9.72199        1.31339       -0.61659
H          8.24081        2.14743       -1.18335
H          8.48650        0.41512       -1.54836
H          3.18785        2.43200       -0.64271
H          0.72302        2.22964       -0.78130
H         -1.72807        2.06101       -0.93256
H         -4.50243        1.65506       -1.02282
H         -8.23860       -0.98268       -0.35258
H         -7.11673       -1.55315        0.91196
H         -6.96435       -2.16051       -0.76911
H         -1.48182       -2.59741        0.89092
