43
syn_S_NPh_diF_diCN.log	Energy: -1103791.0069545
C          0.60474        0.97481        0.39085
C         -0.61258        0.28096        0.40749
C         -1.85386        0.97233        0.39889
C         -3.00417        0.23112        0.41283
N         -4.33244        0.64802        0.42036
C         -4.77903        2.00018        0.37467
C         -4.39473        2.80795       -0.69404
C         -4.82089        4.13048       -0.73632
C         -5.63949        4.63474        0.27138
C         -6.02601        3.81737        1.32966
C         -5.58800        2.49883        1.39231
C         -2.99417       -1.20115        0.45134
C         -4.37667       -1.61667        0.48390
C         -4.85447       -2.95047        0.52330
N         -5.20607       -4.05538        0.55648
C         -5.13742       -0.47177        0.46345
C         -6.55750       -0.37400        0.46400
N         -7.71398       -0.30362        0.47133
C         -1.80858       -1.88955        0.46037
C         -0.58901       -1.16454        0.43470
C          0.64750       -1.82394        0.44037
C          1.85411       -1.12925        0.42218
C          3.10813       -1.80841        0.42797
C          4.26980       -1.09109        0.41055
C          5.62970       -1.57232        0.41251
F          5.91694       -2.87350        0.43284
C          6.54073       -0.58601        0.39207
F          7.85537       -0.72525        0.38857
C          4.23931        0.34786        0.38661
S          5.86414        1.04035        0.36801
C          3.06464        1.03502        0.38017
C          1.83033        0.31396        0.39756
H          0.58955        2.06205        0.37233
H         -1.87387        2.05720        0.38607
H         -3.77611        2.39450       -1.48436
H         -4.52420        4.76321       -1.56668
H         -5.97835        5.66499        0.23012
H         -6.66425        4.20678        2.11604
H         -5.86960        1.85952        2.22280
H         -1.79469       -2.97520        0.49102
H          0.66272       -2.91099        0.46034
H          3.13208       -2.89373        0.44635
H          3.04294        2.12079        0.36224
