50
syn_S_NPh_m-CF3benz_2-Cl.log	Energy: -1459794.0694596
C         -3.63196        1.14893        0.09127
C         -4.66491        0.20681        0.00356
C         -6.03053        0.60318        0.02178
C         -6.98695       -0.36911       -0.07227
N         -8.37305       -0.24916       -0.06873
C         -9.08521        0.97837        0.01361
C         -8.94678        1.91652       -1.00788
C         -9.61685        3.13196       -0.91970
C        -10.43426        3.40179        0.17493
C        -10.57310        2.45806        1.18930
C         -9.89048        1.24856        1.11785
C         -6.67112       -1.76915       -0.17510
C         -7.92615       -2.47586       -0.23608
C         -8.89655       -1.53231       -0.16949
Cl       -10.59674       -1.77143       -0.23267
C         -5.35851       -2.16637       -0.19241
C         -4.32546       -1.19317       -0.10673
C         -2.97417       -1.56016       -0.12333
C         -1.95072       -0.61868       -0.03632
C         -0.57660       -1.00067       -0.05367
C          0.40917       -0.05925        0.03313
C          1.85632       -0.24682        0.03189
C          2.57945       -1.43785       -0.05464
C          3.96444       -1.40751       -0.03642
C          2.55017        0.96877        0.13717
C          3.93968        1.01162        0.15575
C          4.63822       -0.18639        0.06849
C          6.14230       -0.18082        0.03296
F          6.65747       -1.18318        0.76602
F          6.60501       -0.33960       -1.22043
F          6.65705        0.96738        0.50179
C          0.05660        1.33167        0.14316
S          1.48304        2.36825        0.24186
C         -1.24045        1.74437        0.16389
C         -2.28967        0.77756        0.07444
H         -3.88800        2.20277        0.17541
H         -6.29168        1.65315        0.11020
H         -8.31796        1.68462       -1.86177
H         -9.50807        3.86434       -1.71352
H        -10.96243        4.34812        0.23789
H        -11.20636        2.66708        2.04576
H         -9.97517        0.51267        1.91082
H         -8.08104       -3.54008       -0.32704
H         -5.09420       -3.21757       -0.26763
H         -2.71721       -2.61407       -0.20633
H         -0.32993       -2.05622       -0.13746
H          2.05929       -2.38766       -0.13306
H          4.53059       -2.33058       -0.09762
H          4.47057        1.95300        0.24065
H         -1.49872        2.79616        0.24738
