39
syn_S_S_C_m-CF3benz.log	Energy: -1241597.8189095
C         -3.52467        1.29085        0.43989
C         -2.19549        0.88717        0.32106
C         -1.11352        1.76374        0.64026
C          0.16834        1.32344        0.50820
S          1.62972        2.25204        0.85134
C          0.47025       -0.00769        0.05340
C          1.90975       -0.23996       -0.00501
C          2.58979       -1.39673       -0.39068
C          3.97473       -1.42001       -0.37546
C          2.64608        0.88604        0.39427
C          4.03642        0.87460        0.41289
C          4.69146       -0.28753        0.02520
C          6.19516       -0.32907       -0.01674
F          6.66963       -1.48990        0.46771
F          6.65401       -0.21772       -1.27635
F          6.75087        0.66312        0.69666
C         -0.54872       -0.86286       -0.25750
C         -1.90771       -0.44846       -0.13559
C         -2.96474       -1.30302       -0.44723
C         -4.29930       -0.90082       -0.32929
C         -5.37437       -1.77537       -0.64860
C         -6.67357       -1.35455       -0.52393
C         -7.89942       -2.07703       -0.79359
C         -9.00306       -1.34296       -0.55774
C         -6.94378       -0.01728       -0.06592
S         -8.67472        0.28167        0.00942
C         -5.94212        0.85468        0.25137
C         -4.58645        0.43524        0.12781
H         -3.74301        2.29904        0.78460
H         -1.33397        2.77017        0.98413
H          2.03638       -2.27834       -0.69939
H          4.50792       -2.31778       -0.66877
H          4.60025        1.74620        0.72524
H         -0.34018       -1.87235       -0.60281
H         -2.74623       -2.31133       -0.79205
H         -5.15261       -2.78221       -0.99308
H         -7.92121       -3.10094       -1.14791
H        -10.03206       -1.65430       -0.68204
H         -6.15544        1.86240        0.59616
