52
syn_O_NPh_p-CF3benz_diCN.log	Energy: -1084451.4385948
C         -4.17794       -1.18947       -1.13093
C         -5.12190       -0.91907       -0.12922
C         -6.51530       -1.00520       -0.38876
C         -7.38019       -0.73055        0.63660
N         -8.77197       -0.72835        0.65070
C         -9.61464       -1.06003       -0.44914
C        -10.53984       -0.13166       -0.91912
C        -11.36385       -0.47180       -1.98662
C        -11.24718       -1.71967       -2.59213
C        -10.31105       -2.63777       -2.12249
C         -9.49701       -2.31545       -1.04266
C         -6.92832       -0.34946        1.94107
C         -8.11430       -0.11877        2.73135
C         -8.15605        0.27411        4.09263
N         -8.14820        0.59657        5.20690
C         -9.19203       -0.35918        1.91233
C        -10.57261       -0.28020        2.24938
N        -11.69433       -0.20716        2.53057
C         -5.58715       -0.25971        2.21404
C         -4.65362       -0.54593        1.18579
C         -3.27229       -0.46931        1.41568
C         -2.34043       -0.73931        0.41876
C         -0.93485       -0.65414        0.67516
C         -0.05694       -0.92524       -0.32993
C          1.39213       -0.94707       -0.45913
C          2.45635       -0.69438        0.39792
C          3.74861       -0.81530       -0.10353
C          4.93285       -0.60101        0.79783
F          5.47462       -1.76892        1.18943
F          5.90757        0.08867        0.17937
F          4.60453        0.07468        1.91124
C          1.64387       -1.31286       -1.78612
C          2.92230       -1.43887       -2.30347
C          3.97698       -1.18302       -1.43594
C         -0.54570       -1.29168       -1.62738
O          0.49418       -1.52190       -2.49409
C         -1.86010       -1.39112       -1.93622
C         -2.80857       -1.11135       -0.89885
H         -4.53008       -1.46868       -2.12112
H         -6.87034       -1.27742       -1.37741
H        -10.61124        0.84562       -0.45269
H        -12.09239        0.24574       -2.34964
H        -11.88771       -1.97829       -3.42926
H        -10.22278       -3.61430       -2.58780
H         -8.77942       -3.02948       -0.65091
H         -5.23764        0.03051        3.20073
H         -2.92126       -0.18852        2.40596
H         -0.59200       -0.37411        1.66724
H          2.28863       -0.40605        1.42954
H          3.08617       -1.72019       -3.33703
H          4.99665       -1.26349       -1.79747
H         -2.19323       -1.67091       -2.92965
