60
syn_O_NPh_m-OMebenz_p-CF3benz.log	Energy: -1136963.6830546
C         -3.35059       -1.48883        0.69615
C         -4.44848       -0.76294        0.22372
C         -5.78610       -1.20096        0.45614
C         -6.81298       -0.44384       -0.02869
N         -8.19119       -0.65869        0.05155
C         -8.81503       -1.75052        0.70479
C         -8.57308       -1.97985        2.05930
C         -9.17971       -3.05758        2.69522
C        -10.04200       -3.89367        1.99040
C        -10.28805       -3.65604        0.64074
C         -9.66787       -2.59330       -0.00782
C         -6.58895        0.76505       -0.77468
C         -7.90234        1.27139       -1.13868
C         -8.32481        2.39045       -1.84337
C         -9.68968        2.59857       -2.01386
C        -10.18655        3.82361       -2.72399
F         -9.24344        4.37305       -3.50892
F        -11.24966        3.55172       -3.50385
F        -10.58112        4.77934       -1.85995
C         -8.84874        0.36903       -0.61376
C        -10.21759        0.57836       -0.77038
C        -10.62204        1.70154       -1.47687
C         -5.31718        1.20163       -1.00865
C         -4.20968        0.45275       -0.51365
C         -2.89300        0.86764       -0.73067
C         -1.79803        0.14336       -0.25789
C         -0.45802        0.58384       -0.48983
C          0.58330       -0.15500       -0.01014
C          2.03242       -0.04680       -0.03594
C          2.95790        0.85627       -0.56134
C          4.30891        0.61918       -0.37872
C          2.50495       -1.16131        0.65763
C          3.84862       -1.43376        0.86162
C          4.75447       -0.51509        0.32624
O          6.09928       -0.63196        0.43540
C          6.61598       -1.74554        1.12972
C          0.31969       -1.36066        0.71847
O          1.49030       -1.95834        1.11586
C         -0.92539       -1.83207        0.97164
C         -2.03600       -1.07497        0.47911
H         -3.52771       -2.40727        1.25134
H         -5.96361       -2.12118        1.00377
H         -7.91564       -1.30923        2.60375
H         -8.98752       -3.23583        3.74875
H        -10.52059       -4.72905        2.49183
H        -10.95459       -4.30813        0.08475
H         -9.83318       -2.41407       -1.06576
H         -7.60586        3.09004       -2.25605
H        -10.94461       -0.11003       -0.35387
H        -11.68145        1.88716       -1.62006
H         -5.13197        2.11229       -1.57252
H         -2.71629        1.78561       -1.28737
H         -0.29042        1.50228       -1.04579
H          2.62772        1.73484       -1.10702
H          5.05731        1.29794       -0.77214
H          4.15132       -2.31680        1.40909
H          7.70100       -1.64228        1.09777
H          6.32708       -2.68827        0.64779
H          6.28330       -1.75604        2.17550
H         -1.08486       -2.75006        1.52711
