47
syn_S_NPh_3-F_diCF3.log	Energy: -1348705.7531088
C          0.67635        1.08957        0.54605
C         -0.49671        0.32497        0.52373
C         -1.77877        0.93413        0.51100
C         -2.87865        0.12054        0.49391
N         -4.22249        0.47024        0.48015
C         -4.68371        1.82156        0.45510
C         -5.24590        2.34417       -0.70548
C         -5.66668        3.67003       -0.72153
C         -5.50693        4.46889        0.40717
C         -4.92964        3.94138        1.55991
C         -4.51958        2.61335        1.58882
C         -2.79822       -1.31096        0.47379
C         -4.16429       -1.78970        0.43856
C         -4.59293       -3.22218        0.40877
F         -3.54024       -4.03076        0.18477
F         -5.14850       -3.61905        1.56479
F         -5.48323       -3.46578       -0.56685
C         -4.97304       -0.68831        0.45861
C         -6.47567       -0.60760        0.44544
F         -6.91385        0.31408        1.31522
F         -6.93237       -0.26303       -0.77091
F         -7.03415       -1.77080        0.77575
C         -1.56437       -1.91608        0.48593
C         -0.39159       -1.11617        0.51514
C          0.88069       -1.70156        0.53179
C          2.04626       -0.93786        0.55542
C          3.33604       -1.54283        0.57256
C          4.45382       -0.75664        0.59502
C          5.84463       -1.14735        0.61507
F          6.18287       -2.43909        0.61324
C          6.72165       -0.13155        0.63479
C          4.34366        0.67559        0.60138
S          5.93362        1.43745        0.63098
C          3.12906        1.29405        0.58550
C          1.94024        0.50279        0.56217
H          0.59661        2.17424        0.55122
H         -1.87182        2.01545        0.51527
H         -5.35455        1.71238       -1.58005
H         -6.11295        4.08031       -1.62178
H         -5.83215        5.50440        0.38893
H         -4.80588        4.56195        2.44177
H         -4.07881        2.18102        2.48151
H         -1.46784       -2.99485        0.47336
H          0.95985       -2.78626        0.52540
H          3.42348       -2.62531        0.56763
H          7.79960       -0.20519        0.65160
H          3.04409        2.37697        0.59013
