53
syn_S_NPh_2-CF3_m-CF3benz.log	Energy: -1382846.4907211
C         -3.40065        1.52585       -0.23190
C         -2.11099        0.99265       -0.19347
C         -0.96232        1.83138       -0.07528
C          0.27065        1.24753       -0.03972
N          1.52962        1.83725        0.05679
C          1.78174        3.22801        0.16300
C          1.22342        3.95683        1.21306
C          1.46686        5.32260        1.30965
C          2.28179        5.95784        0.37602
C          2.84536        5.22468       -0.66482
C          2.58833        3.86274       -0.78140
C          0.44672       -0.17939       -0.13318
C          1.87967       -0.42032       -0.08769
C          2.65435       -1.57514       -0.12245
C          4.03578       -1.46501       -0.03861
C          2.49999        0.83834        0.02732
C          3.88098        0.96395        0.12389
C          4.63339       -0.20553        0.08628
C          6.13538       -0.11695        0.12199
F          6.67726       -1.12360        0.82857
F          6.66107       -0.18360       -1.11556
F          6.56304        1.03359        0.66819
C         -0.63654       -0.99997       -0.24663
C         -1.94897       -0.44031       -0.27683
C         -3.08036       -1.24768       -0.39031
C         -4.37167       -0.71236       -0.42767
C         -5.52040       -1.54136       -0.54419
C         -6.77389       -0.98672       -0.57953
C         -8.05559       -1.64475       -0.69352
C         -9.08664       -0.77908       -0.69737
C        -10.53357       -1.14181       -0.80304
F        -10.68993       -2.46989       -0.89548
F        -11.22810       -0.72172        0.26649
F        -11.10477       -0.58649       -1.88380
C         -6.92259        0.44118       -0.49789
S         -8.61661        0.90940       -0.56415
C         -5.84673        1.27369       -0.38507
C         -4.53513        0.71718       -0.34660
H         -3.52669        2.60442       -0.17119
H         -1.08573        2.90828       -0.02107
H          0.60838        3.44685        1.94798
H          1.02920        5.88877        2.12602
H          2.47753        7.02223        0.45978
H          3.47784        5.71551       -1.39795
H          3.00340        3.28682       -1.60284
H          2.18652       -2.55116       -0.20796
H          4.65652       -2.35362       -0.06011
H          4.35631        1.93151        0.23365
H         -0.51871       -2.07794       -0.31996
H         -2.95495       -2.32650       -0.45277
H         -5.39338       -2.61913       -0.60525
H         -8.17684       -2.71831       -0.76831
H         -5.96680        2.35145       -0.32425
