55
syn_C_NPh_m-CNbenz_2-OMe.log	Energy: -888376.6877704
C          1.21168       -2.34597        0.37932
C          0.17813       -1.45773        0.08122
C         -1.18584       -1.87758        0.08591
C         -2.14827       -0.95884       -0.20928
N         -3.53136       -1.11062       -0.28748
C         -4.26279       -2.28279        0.03511
C         -4.06559       -2.89640        1.27201
C         -4.75994       -4.06033        1.58356
C         -5.66517       -4.60089        0.67451
C         -5.86799       -3.97692       -0.55370
C         -5.16178       -2.82514       -0.88185
C         -1.84724        0.41335       -0.54319
C         -3.10363        1.06439       -0.81735
C         -4.06920        0.11703       -0.65152
O         -5.39648        0.16865       -0.76426
C         -5.92554        1.44049       -1.09799
C         -0.54429        0.83195       -0.55412
C          0.50205       -0.08437       -0.23928
C          1.84092        0.31034       -0.23640
C          2.87522       -0.58160        0.06473
C          4.23569       -0.18058        0.06854
C          5.26030       -1.05200        0.36270
C          6.67335       -0.65090        0.37143
C          7.09170        0.66056        0.08194
C          8.42394        1.01720        0.09531
C          7.66277       -1.61363        0.68263
C          9.01501       -1.24625        0.69461
C          9.39992        0.05516        0.40461
C         10.78936        0.41728        0.42092
N         11.91053        0.71234        0.43345
C          4.92829       -2.42372        0.67671
C          5.99007       -3.35527        0.98604
C          7.28096       -2.97627        0.98914
C          3.61381       -2.83247        0.67899
C          2.55162       -1.94540        0.37939
H          0.96910       -3.37924        0.61823
H         -1.43162       -2.90935        0.31681
H         -3.37305       -2.45548        1.98208
H         -4.60100       -4.53788        2.54554
H         -6.21153       -5.50561        0.92243
H         -6.57131       -4.39487       -1.26741
H         -5.30260       -2.34125       -1.84196
H         -3.24983        2.09583       -1.09837
H         -7.00718        1.31668       -1.13909
H         -5.54965        1.77183       -2.07275
H         -5.66218        2.17998       -0.33338
H         -0.29019        1.85818       -0.80511
H          2.08621        1.34286       -0.47639
H          4.44131        0.85739       -0.17372
H          6.36175        1.42437       -0.15972
H          8.72371        2.03470       -0.13106
H          9.76866       -1.99053        0.93410
H          5.71539       -4.38079        1.21812
H          8.06826       -3.68740        1.22308
H          3.37894       -3.86768        0.91728
