39
syn_C_O_tetFbenz_C.log	Energy: -875188.2758789
C          1.02915       -1.65492        0.91494
C          0.03286       -0.86709        0.33628
C         -1.35058       -1.11119        0.59654
C         -2.25280       -0.29645       -0.00771
O         -3.61163       -0.37018        0.11630
C         -1.90280        0.78128       -0.88124
C         -3.16948        1.36062       -1.28082
C         -4.11783        0.63626       -0.65938
C         -0.58508        1.03453       -1.14573
C          0.41759        0.21658       -0.54347
C          1.77482        0.44033       -0.78588
C          2.76909       -0.35083       -0.20417
C          4.14673       -0.11553       -0.45619
C          5.13956       -0.88642        0.10973
C          6.57782       -0.67534       -0.12512
C          7.10918        0.32995       -0.94882
F          6.33234        1.20215       -1.60646
C          8.47070        0.49204       -1.14012
F          8.92028        1.46208       -1.93170
C          7.51213       -1.53283        0.51310
C          8.88385       -1.35327        0.30727
F          9.75911       -2.16494        0.91177
C          9.37442       -0.35513       -0.50818
F         10.68090       -0.19598       -0.69427
C          4.74422       -1.96877        0.98844
C          5.75443       -2.79997        1.60144
C          7.06450       -2.59931        1.38101
C          3.41343       -2.20864        1.24184
C          2.38499       -1.42380        0.66681
H          0.74285       -2.46969        1.57606
H         -1.65779       -1.91834        1.25282
H         -3.33064        2.20024       -1.94049
H         -5.19554        0.70495       -0.66209
H         -0.28513        1.84481       -1.80404
H          2.06571        1.25413       -1.44641
H          4.39215        0.70223       -1.11751
H          5.42466       -3.60304        2.25462
H          7.81410       -3.22840        1.84569
H          3.13933       -3.02641        1.90458
