55
syn_O_NPh_3-OMe_p-OMebenz.log	Energy: -900968.3386149
C         -3.35720        1.49619       -0.44516
C         -2.05730        0.99437       -0.36452
C         -0.94157        1.85003       -0.11550
C          0.30483        1.29796       -0.04224
N          1.53824        1.90937        0.17253
C          1.74568        3.29017        0.39053
C          1.06314        3.94618        1.41640
C          1.26296        5.30695        1.62134
C          2.15816        6.01419        0.82286
C          2.84623        5.35547       -0.19269
C          2.63453        3.99968       -0.41882
C          0.52600       -0.11431       -0.22799
C          1.96112       -0.32729       -0.11342
C          2.75159       -1.46359       -0.18510
C          4.13125       -1.34080       -0.00953
O          4.83989       -2.50189       -0.09916
C          6.23379       -2.44071        0.08200
C          2.54208        0.93229        0.12893
C          3.90911        1.06003        0.31779
C          4.70081       -0.08709        0.24373
C         -0.52422       -0.94959       -0.46751
C         -1.84939       -0.42325       -0.53885
C         -2.94877       -1.24646       -0.77892
C         -4.25246       -0.74564       -0.85853
C         -5.36284       -1.60445       -1.10468
C         -6.61430       -1.05958       -1.17281
C         -7.94656       -1.57940       -1.39768
O         -8.18312       -2.88825       -1.60616
C         -9.54088       -3.21805       -1.80784
C         -8.79080       -0.52440       -1.34847
C         -6.80333        0.34314       -1.00057
O         -8.12435        0.66053       -1.10814
C         -5.78317        1.21082       -0.76374
C         -4.46266        0.67390       -0.68638
H         -3.51710        2.56437       -0.31585
H         -1.10197        2.91678        0.00401
H          0.38529        3.38213        2.04937
H          0.72655        5.81278        2.41845
H          2.31836        7.07463        0.99098
H          3.54085        5.90171       -0.82371
H          3.14642        3.48455       -1.22578
H          2.32841       -2.44571       -0.36939
H          6.59754       -3.46342       -0.02671
H          6.49727       -2.06943        1.08155
H          6.71398       -1.80586       -0.67486
H          4.36298        2.02319        0.52554
H          5.76979        0.01427        0.39018
H         -0.36926       -2.01586       -0.61173
H         -2.78832       -2.31465       -0.90972
H         -5.20571       -2.67098       -1.23433
H         -9.94110       -2.70323       -2.69170
H        -10.14335       -2.94810       -0.93002
H         -9.58154       -4.29640       -1.96238
H         -9.85976       -0.43528       -1.45879
H         -5.95750        2.27404       -0.63699
