36
syn_C_S_C_3-CF3.log	Energy: -943920.0205543
C         -2.39030        1.38342        0.22260
C         -3.58626        0.69324        0.38788
C         -4.84160        1.37433        0.44203
C         -5.98512        0.65363        0.60544
S         -7.62980        1.28092        0.69907
C         -5.97251       -0.78182        0.72648
C         -7.32221       -1.29464        0.89088
C         -7.62743       -2.74816        1.04238
F         -7.20096       -3.45376       -0.02143
F         -7.01247       -3.27034        2.11965
F         -8.94240       -2.97429        1.17755
C         -8.26262       -0.33061        0.89293
C         -4.78475       -1.45794        0.67772
C         -3.55975       -0.74753        0.50791
C         -2.33722       -1.41003        0.45504
C         -1.12778       -0.71820        0.28842
C          0.11524       -1.38385        0.23409
C          1.30284       -0.69293        0.06973
C          2.57348       -1.36172        0.01329
C          3.72545       -0.66056       -0.14862
C          1.27593        0.74663       -0.04993
C          2.52136        1.44302       -0.21977
C          3.69880        0.76743       -0.26728
C          0.06303        1.41124        0.00169
C         -1.15480        0.71885        0.16890
H         -2.40984        2.46717        0.13233
H         -4.86026        2.45654        0.35168
H         -9.32902       -0.47600        1.00079
H         -4.75879       -2.53938        0.76724
H         -2.31726       -2.49371        0.54527
H          0.13450       -2.46774        0.32430
H          2.59063       -2.44469        0.10354
H          4.67915       -1.17796       -0.18966
H          2.49859        2.52594       -0.30952
H          4.63288        1.30582       -0.39604
H          0.04262        2.49514       -0.08841
