49
syn_S_NPh_diOMe_diF.log	Energy: -1131749.5097383
C          0.64178        1.27067        0.49079
C         -0.52533        0.49895        0.52136
C         -1.81276        1.10660        0.48934
C         -2.91552        0.30098        0.51515
N         -4.27058        0.63435        0.51299
C         -4.83294        1.92685        0.36504
C         -4.39802        2.75501       -0.67000
C         -4.93598        4.03013       -0.80305
C         -5.92241        4.47126        0.07492
C         -6.36414        3.63382        1.09564
C         -5.81480        2.36626        1.25231
C         -2.81022       -1.13358        0.59415
C         -4.15873       -1.62430        0.63524
F         -4.52127       -2.90637        0.70904
C         -4.98296       -0.55497        0.58422
F         -6.30133       -0.51585        0.58152
C         -1.58270       -1.73893        0.63032
C         -0.40770       -0.93870        0.58833
C          0.86893       -1.51235        0.61613
C          2.03018       -0.74127        0.58192
C          3.32781       -1.33246        0.60808
C          4.44443       -0.54427        0.56892
C          5.83491       -0.95424        0.57073
O          6.19642       -2.27626        0.58366
C          6.19759       -2.86297       -0.71068
C          6.69431        0.09538        0.54619
O          8.03050        0.16140        0.54403
C          8.75055       -0.96824        1.02703
C          4.31283        0.88574        0.51757
S          5.89029        1.67128        0.51596
C          3.09524        1.49383        0.49167
C          1.91063        0.69457        0.51925
H          0.55473        2.35412        0.44366
H         -1.89795        2.18794        0.45219
H         -3.64862        2.39271       -1.36645
H         -4.59226        4.67453       -1.60627
H         -6.34653        5.46417       -0.03673
H         -7.13206        3.97204        1.78438
H         -6.13951        1.71814        2.05909
H         -1.49759       -2.81938        0.69547
H          0.95645       -2.59550        0.66680
H          3.42415       -2.41312        0.66991
H          6.97010       -2.41020       -1.34610
H          5.22323       -2.74699       -1.20013
H          6.41329       -3.92414       -0.57156
H          9.77880       -0.62581        1.14722
H          8.71571       -1.79676        0.31454
H          8.34721       -1.30177        1.98737
H          3.00254        2.57577        0.45512
