62
syn_NPh_NPh_3-CN_m-CF3benz.log	Energy: -1159078.1997168
C         -3.72553        0.40933        0.44957
C         -2.37156        0.19850        0.19213
C         -1.39452        1.20389        0.46656
C         -0.08562        0.93272        0.19551
N          1.04132        1.73861        0.35798
C          1.04395        3.05283        0.88680
C          0.52470        3.29080        2.15954
C          0.52251        4.58321        2.67280
C          1.05558        5.63411        1.93065
C          1.58184        5.39096        0.66479
C          1.56702        4.10503        0.13506
C          0.33659       -0.32318       -0.37113
C          1.77774       -0.23331       -0.54216
C          2.73766       -1.11782       -1.02186
C          4.07009       -0.72660       -1.03837
C          2.16320        1.04174       -0.08513
C          3.49389        1.44276       -0.08369
C          4.43511        0.54005       -0.56924
C          5.87858        0.95731       -0.65024
F          6.71035       -0.06868       -0.40206
F          6.18865        1.42148       -1.87554
F          6.17365        1.93449        0.22396
C         -0.57786       -1.29757       -0.64139
C         -1.95982       -1.06941       -0.36503
C         -2.92282       -2.04191       -0.62694
C         -4.28244       -1.83208       -0.36871
C         -5.25307       -2.83165       -0.65187
C         -6.57093       -2.58162       -0.38153
C         -7.79078       -3.34646       -0.56117
C         -7.89594       -4.65920       -1.08642
N         -7.95577       -5.73404       -1.52075
C         -8.82143       -2.56689       -0.11835
C         -6.96744       -1.32613        0.18783
N         -8.35699       -1.35936        0.33892
C         -9.17426       -0.32381        0.86064
C         -8.85998        0.26034        2.08756
C         -9.67070        1.27023        2.59342
C        -10.80078        1.68330        1.89211
C        -11.11517        1.08783        0.67381
C        -10.29846        0.09177        0.14899
C         -6.07297       -0.32881        0.46072
C         -4.69624       -0.56549        0.18826
H         -4.03944        1.36344        0.86722
H         -1.70664        2.15901        0.87692
H          0.13284        2.46041        2.73856
H          0.11580        4.76616        3.66263
H          1.06133        6.64017        2.33820
H          1.99474        6.20683        0.07969
H          1.95287        3.90965       -0.86075
H          2.45177       -2.10433       -1.37379
H          4.83313       -1.40356       -1.40551
H          3.79327        2.41533        0.28878
H         -0.27420       -2.24881       -1.07071
H         -2.60990       -2.99504       -1.04765
H         -4.94320       -3.77850       -1.08531
H         -9.87692       -2.79582       -0.07129
H         -7.99509       -0.08871        2.64241
H         -9.42523        1.72486        3.54812
H        -11.43472        2.46702        2.29442
H        -11.99169        1.40838        0.11956
H        -10.51880       -0.35452       -0.81607
H         -6.38612        0.62800        0.86593
