53
syn_C_NPh_benz_3-CF3.log	Energy: -970114.0261678
C         -2.15414        1.24455        0.74319
C         -3.36496        0.54647        0.74624
C         -4.61128        1.22796        0.85433
C         -5.75886        0.48653        0.84455
N         -7.09334        0.88402        0.95060
C         -7.57508        2.21138        1.06462
C         -7.14105        3.19173        0.17189
C         -7.62458        4.49005        0.28883
C         -8.55360        4.80932        1.27583
C         -8.99302        3.82397        2.15544
C         -8.49801        2.52769        2.06081
C         -5.74848       -0.94864        0.75631
C         -7.13160       -1.36367        0.82235
C         -7.63503       -2.75371        0.75264
F         -7.29916       -3.35475       -0.40561
F         -7.12523       -3.52288        1.73508
F         -8.97522       -2.80093        0.85763
C         -7.88693       -0.24274        0.94062
C         -4.56264       -1.62417        0.65199
C         -3.34033       -0.89590        0.63743
C         -2.10763       -1.54645        0.52865
C         -0.90077       -0.84451        0.52386
C          0.35234       -1.50391        0.41298
C          1.54671       -0.82219        0.40820
C          2.85217       -1.49147        0.29364
C          2.98361       -2.88582        0.17896
C          4.22478       -3.48710        0.07264
C          4.03063       -0.71088        0.29772
C          5.28354       -1.33683        0.18892
C          5.38705       -2.70958        0.07727
C          1.51394        0.62064        0.52137
C          2.75891        1.35751        0.51906
C          3.94432        0.73018        0.41375
C          0.31121        1.27954        0.62967
C         -0.92620        0.58835        0.63523
H         -2.16874        2.32909        0.82692
H         -4.62660        2.30885        0.95023
H         -6.44253        2.92867       -0.61584
H         -7.28439        5.25134       -0.40634
H         -8.93402        5.82247        1.35871
H         -9.71348        4.06618        2.93051
H         -8.81140        1.76247        2.76460
H         -8.96211       -0.14702        0.99657
H         -4.54225       -2.70787        0.58821
H         -2.09103       -2.63108        0.44646
H          0.33126       -2.58601        0.33077
H          2.10228       -3.51780        0.17209
H          4.29269       -4.56730       -0.01456
H          6.17849       -0.71960        0.19391
H          6.36166       -3.18067       -0.00621
H          2.70993        2.43978        0.60543
H          4.87130        1.29770        0.41354
H          0.30395        2.36419        0.71397
