46
syn_C_S_2-OMe_m-CF3benz.log	Energy: -1112151.8209245
C         -3.32830        0.35949        1.63176
C         -2.00877        0.22214        1.21863
C         -0.91379        0.42203        2.11840
C          0.36091        0.27628        1.66772
S          1.83427        0.47992        2.61966
C          0.64777       -0.07653        0.30016
C          2.08478       -0.17268        0.06323
C          2.75153       -0.48903       -1.12250
C          4.13545       -0.52951       -1.14511
C          2.83359        0.10025        1.21773
C          4.22411        0.06257        1.20695
C          4.86512       -0.25422        0.01673
C          6.36688       -0.31407       -0.05274
F          6.79187       -1.54227       -0.39953
F          6.84792        0.53577       -0.97775
F          6.94698       -0.00462        1.11695
C         -0.37873       -0.27246       -0.57725
C         -1.73624       -0.13165       -0.15509
C         -2.79710       -0.32655       -1.03255
C         -4.13273       -0.18905       -0.62114
C         -5.21546       -0.38487       -1.50530
C         -6.52913       -0.24745       -1.09178
C         -7.63310       -0.44614       -1.99036
C         -8.91453       -0.30216       -1.54767
O        -10.03198       -0.46194       -2.29444
C         -9.86624       -0.80725       -3.65154
C         -6.79637        0.10585        0.28236
C         -8.16796        0.24392        0.69336
C         -9.18365        0.04941       -0.17942
C         -5.74630        0.30086        1.15967
C         -4.40306        0.16364        0.74932
H         -3.53744        0.62580        2.66547
H         -1.12308        0.68805        3.15052
H          2.18786       -0.70280       -2.02547
H          4.65912       -0.77417       -2.06325
H          4.79791        0.27474        2.10160
H         -0.18096       -0.53896       -1.61247
H         -2.58890       -0.59279       -2.06655
H         -5.00475       -0.65087       -2.53882
H         -7.41046       -0.71084       -3.01806
H        -10.87038       -0.88637       -4.06903
H         -9.34939       -1.76974       -3.75690
H         -9.30477       -0.03496       -4.19278
H         -8.37571        0.50956        1.72632
H        -10.22184        0.15068        0.11874
H         -5.95558        0.56701        2.19353
