36
syn_O_O_2-F_tetClbenz.log	Energy: -1840611.9659544
C         -3.42325        1.21135        0.21478
C         -2.12043        0.71752        0.14557
C         -0.98911        1.56272        0.37285
C          0.23876        0.99875        0.28552
O          1.42823        1.66475        0.47446
C          0.46788       -0.38070       -0.01829
C          1.91719       -0.52407       -0.00360
C          2.81489       -1.56553       -0.20965
Cl         2.21602       -3.14563       -0.58660
C          4.18910       -1.32040       -0.10950
Cl         5.31400       -2.60948       -0.36422
C          2.41158        0.74817        0.29967
C          3.76388        1.02672        0.40657
Cl         4.27609        2.62943        0.78443
C          4.65897       -0.02894        0.19757
Cl         6.35539        0.26844        0.32015
C         -0.59600       -1.20843       -0.23949
C         -1.91951       -0.67731       -0.16242
C         -3.03312       -1.49049       -0.38160
C         -4.33931       -0.99914       -0.31295
C         -5.46311       -1.85019       -0.54102
C         -6.72380       -1.32742       -0.46402
C         -8.06960       -1.84235       -0.62363
C         -8.86167       -0.77880       -0.40963
F        -10.16428       -0.66850       -0.42688
C         -6.88436        0.06147       -0.15622
O         -8.22328        0.37802       -0.12818
C         -5.86410        0.92340        0.07105
C         -4.53744        0.39735       -0.00465
H         -3.57690        2.26252        0.44669
H         -1.11711        2.61403        0.60579
H         -0.45830       -2.25836       -0.47188
H         -2.87827       -2.54172       -0.61365
H         -5.29874       -2.89845       -0.77195
H         -8.38642       -2.84550       -0.85994
H         -6.03707        1.96900        0.30108
