44
syn_C_C_diF_diOMe.log	Energy: -799371.7745371
C         -1.53600       -0.29112        2.24789
C         -2.74131        0.09498        1.65662
C         -3.90043        0.37010        2.42117
C         -5.08682        0.75276        1.83015
C         -6.26671        1.04530        2.59867
C         -7.42020        1.40607        1.98775
C         -5.15614        0.87441        0.39011
C         -6.40157        1.28366       -0.21308
O         -6.42786        1.43512       -1.57736
C         -6.34358        2.79542       -1.98212
C         -7.50362        1.52076        0.55833
O         -8.71550        1.91110        0.07580
C         -9.24130        1.20739       -1.04192
C         -4.03863        0.61038       -0.37479
C         -2.81413        0.21973        0.21839
C         -1.67572       -0.05065       -0.54552
C         -0.46833       -0.43707        0.04480
C          0.68630       -0.71099       -0.72468
C          1.86884       -1.09061       -0.12382
C          3.05026       -1.37248       -0.88502
F          2.98848       -1.25926       -2.21775
C          4.20465       -1.74451       -0.28118
F          5.29756       -2.00366       -1.00876
C          1.95078       -1.21693        1.31546
C          3.19988       -1.61502        1.90688
C          4.28805       -1.86986        1.13725
C          0.82755       -0.95131        2.07374
C         -0.39650       -0.56047        1.48315
H         -1.48198       -0.38463        3.33030
H         -3.84851        0.27575        3.50360
H         -6.21787        0.96068        3.68053
H         -8.32223        1.62000        2.55165
H         -7.20750        3.36778       -1.62258
H         -6.33214        2.79420       -3.07380
H         -5.42220        3.25622       -1.60554
H        -10.32030        1.37215       -1.01691
H         -9.02959        0.13583       -0.95978
H         -8.83410        1.57461       -1.98766
H         -4.10409        0.69335       -1.45504
H         -1.73029        0.04120       -1.62778
H          0.63662       -0.61999       -1.80494
H          3.25725       -1.70872        2.98706
H          5.23838       -2.17124        1.56414
H          0.88091       -1.04404        3.15610
