33
syn_C_O_2-F_diF.log	Energy: -716554.1602091
C         -2.42233        0.97804        1.33739
C         -3.67835        0.51965        0.96023
C         -4.87247        1.10415        1.49766
C         -6.05467        0.59949        1.07869
O         -7.30219        1.02709        1.47951
C         -6.17643       -0.47477        0.13806
C         -7.60005       -0.66053        0.00418
F         -8.20882       -1.55533       -0.76865
C         -8.18175        0.24443        0.81044
F         -9.44110        0.49361        1.05491
C         -5.06177       -1.05314       -0.39266
C         -3.77545       -0.56912        0.00615
C         -2.60670       -1.12393       -0.50467
C         -1.33555       -0.66338       -0.12584
C         -0.14933       -1.22518       -0.64288
C          1.09921       -0.76399       -0.26262
C          2.31129       -1.33041       -0.78399
C          3.50384       -0.83869       -0.37559
F          4.64717       -1.35517       -0.85145
C          1.19204        0.32068        0.68809
C          2.49520        0.78846        1.07315
C          3.62197        0.23091        0.56132
C          0.03485        0.87965        1.20189
C         -1.24187        0.41794        0.82188
H         -2.34832        1.79421        2.05251
H         -4.81926        1.91880        2.21170
H         -5.13422       -1.86760       -1.10632
H         -2.67841       -1.94011       -1.21995
H         -0.22292       -2.04118       -1.35801
H          2.27204       -2.14548       -1.49885
H          2.56348        1.60389        1.78782
H          4.61253        0.57202        0.84127
H          0.10771        1.69593        1.91727
