40
syn_S_O_tetFbenz_3-OMe.log	Energy: -1148319.7984085
C         -3.57873        1.07601       -0.00113
C         -4.60729        0.12728       -0.00132
C         -5.97799        0.52328       -0.00182
C         -6.91639       -0.46129       -0.00197
O         -8.26589       -0.28794       -0.00244
C         -6.59398       -1.85055       -0.00166
C         -7.87738       -2.52017       -0.00197
O         -7.98794       -3.86043       -0.00178
C         -9.31490       -4.34484       -0.00227
C         -8.82145       -1.55213       -0.00243
C         -5.29104       -2.26189       -0.00119
C         -4.26127       -1.27642       -0.00100
C         -2.91039       -1.63916       -0.00051
C         -1.88964       -0.68942       -0.00031
C         -0.51630       -1.07308        0.00022
C          0.46657       -0.12258        0.00041
C          1.91565       -0.29147        0.00093
C          2.66678       -1.46232        0.00137
F          2.07264       -2.65970        0.00136
C          4.05349       -1.41373        0.00184
F          4.76584       -2.53760        0.00227
C          2.59237        0.93981        0.00097
C          3.97629        0.99434        0.00143
F          4.61339        2.16635        0.00145
C          4.70978       -0.18433        0.00186
F          6.03825       -0.14847        0.00231
C          0.10921        1.27193        0.00006
S          1.52334        2.33334        0.00037
C         -1.18875        1.68155       -0.00044
C         -2.23442        0.70789       -0.00063
H         -3.83770        2.13230       -0.00137
H         -6.25275        1.57259       -0.00207
H         -9.24967       -5.43281       -0.00217
H         -9.85348       -4.00735       -0.89787
H         -9.85418       -4.00724        0.89287
H         -9.89939       -1.57935       -0.00281
H         -5.03378       -3.31658       -0.00094
H         -2.64939       -2.69508       -0.00027
H         -0.26463       -2.12769        0.00047
H         -1.44871        2.73618       -0.00068
