46
syn_S_S_p-CF3benz_p-CNbenz.log	Energy: -1395847.3124469
C         -3.14788       -1.05176        2.34002
C         -4.20331       -0.59359        1.54907
C         -5.54693       -0.57543        2.03098
C         -6.54265       -0.11891        1.22107
S         -8.25633       -0.01854        1.63377
C         -6.28248        0.34817       -0.11292
C         -7.50881        0.78253       -0.77502
C         -7.66176        1.29233       -2.06041
C         -8.93346        1.65218       -2.50819
C         -9.09671        2.17864       -3.83427
N         -9.22764        2.60339       -4.90491
C         -8.63916        0.63966        0.04850
C         -9.91092        0.99750       -0.39359
C        -10.05428        1.50451       -1.67535
C         -5.00369        0.33968       -0.59442
C         -3.92830       -0.12821        0.21513
C         -2.61312       -0.14652       -0.25366
C         -1.55759       -0.60441        0.53736
C         -0.21604       -0.62159        0.05677
C          0.80024       -1.07462        0.84994
C          2.22494       -1.17117        0.54865
C          2.88499       -0.82278       -0.62863
C          4.25851       -0.99673       -0.71781
C          4.99960       -0.58503       -1.95988
F          4.17750       -0.41716       -3.00853
F          5.65525        0.57586       -1.78025
F          5.92048       -1.49951       -2.31061
C          2.96288       -1.69052        1.62342
C          4.34209       -1.86604        1.53731
C          4.98459       -1.51568        0.36002
C          0.51112       -1.53734        2.18004
S          1.96530       -2.07482        3.02278
C         -0.75558       -1.53906        2.68204
C         -1.83263       -1.07017        1.87125
H         -3.35554       -1.40352        3.34787
H         -5.75193       -0.92688        3.03796
H         -6.80573        1.41263       -2.71642
H        -10.77708        0.88351        0.24957
H        -11.03373        1.79037       -2.04298
H         -4.78603        0.68888       -1.60055
H         -2.40533        0.20529       -1.26167
H         -0.01762       -0.26766       -0.95165
H          2.33180       -0.42299       -1.47158
H          4.90608       -2.27109        2.37092
H          6.05749       -1.64950        0.27073
H         -0.96560       -1.89009        3.68815
