34
syn_C_O_2-CN_2-Cl.log	Energy: -876053.0381628
C          1.04910       -1.58759        0.48151
C         -0.08979       -0.83132        0.22925
C         -1.39962       -1.36730        0.45079
C         -2.45257       -0.56122        0.17915
O         -3.77584       -0.89360        0.32726
C         -2.34150        0.78100       -0.31115
C         -3.70619        1.24531       -0.45184
C         -4.47213        0.21052       -0.05981
Cl        -6.16949        0.06260        0.02881
C         -1.10520        1.31648       -0.53127
C          0.05653        0.52424       -0.26685
C          1.33540        1.02968       -0.47671
C          2.48682        0.26796       -0.22279
C          3.78368        0.77907       -0.43507
C          4.91151        0.01712       -0.18049
C          6.23013        0.53225       -0.39482
C          7.32889       -0.23666       -0.13712
C          8.64413        0.29520       -0.35758
N          9.70983        0.71707       -0.53303
C          4.76594       -1.33186        0.31364
C          5.95373       -2.09993        0.56940
C          7.18814       -1.58223        0.35584
C          3.49858       -1.84318        0.52537
C          2.34021       -1.07861        0.27031
H          0.93871       -2.60343        0.85354
H         -1.53117       -2.37796        0.82120
H         -4.05400        2.20741       -0.79461
H         -0.98448        2.32986       -0.90224
H          1.44856        2.04546       -0.84856
H          3.89582        1.79487       -0.80710
H          6.34663        1.54591       -0.76636
H          5.84313       -3.11460        0.94132
H          8.08183       -2.16507        0.55021
H          3.38648       -2.85891        0.89758
