42
syn_O_O_tetFbenz_tetFbenz.log	Energy: -1219187.3694970
C         -3.15825       -0.78407        1.80864
C         -4.30027       -0.40758        1.09898
C         -5.60318       -0.51578        1.68026
C         -6.65897       -0.12903        0.92404
O         -7.97641       -0.16394        1.31897
C         -6.53557        0.37518       -0.40929
C         -7.89778        0.65696       -0.82454
C         -8.48478        1.15469       -1.97743
F         -7.74150        1.49542       -3.03071
C         -9.86432        1.29746       -2.02960
F        -10.45478        1.77250       -3.12412
C         -8.70056        0.30724        0.26621
C        -10.07806        0.44151        0.23655
F        -10.84472        0.11050        1.27122
C        -10.64945        0.94255       -0.92955
F        -11.96798        1.08834       -1.00354
C         -5.30661        0.48949       -0.98926
C         -4.15265        0.09853       -0.24437
C         -2.87243        0.19625       -0.79306
C         -1.73045       -0.18025       -0.08337
C         -0.43078       -0.07163       -0.66511
C          0.65390       -0.45225        0.06866
C          2.08687       -0.49191       -0.16062
C          2.91676       -0.15692       -1.21916
F          2.41396        0.32692       -2.35540
C          4.28757       -0.33000       -1.08805
F          5.10816       -0.01693       -2.08849
C          2.63999       -0.99762        1.02042
C          4.00395       -1.17828        1.17335
F          4.53389       -1.65838        2.29430
C          4.82132       -0.83656        0.09983
F          6.13676       -0.99332        0.20130
C          0.48463       -0.95129        1.39882
O          1.69674       -1.27729        1.96213
C         -0.72076       -1.07781        2.00476
C         -1.87799       -0.68641        1.25997
H         -3.26939       -1.16539        2.82072
H         -5.73170       -0.89402        2.68836
H         -5.19482        0.86990       -1.99927
H         -2.76123        0.57790       -1.80533
H         -0.32058        0.30905       -1.67519
H         -0.81389       -1.46012        3.01522
