32
syn_S_O_C_diCN.log	Energy: -846808.2495393
C          1.12568       -1.24078        0.00090
C          2.28240       -0.45798        0.00173
C          3.57867       -1.05709        0.00158
C          4.64564       -0.21893        0.00242
O          5.96783       -0.59337        0.00242
C          4.54121        1.20155        0.00344
C          5.91270        1.67194        0.00411
C          6.35451        3.02094        0.00524
N          6.67776        4.13396        0.00613
C          6.69063        0.55390        0.00337
C          8.10726        0.43245        0.00356
N          9.26286        0.35219        0.00374
C          3.31430        1.80499        0.00361
C          2.15091        0.98341        0.00276
C          0.87105        1.54635        0.00290
C         -0.28295        0.76158        0.00207
C         -1.58229        1.34386        0.00223
C         -2.69826        0.54926        0.00141
C         -4.09478        0.93344        0.00140
C         -4.92818       -0.12358        0.00045
C         -2.54937       -0.88410        0.00038
S         -4.11777       -1.67695       -0.00052
C         -1.32399       -1.48417        0.00020
C         -0.15059       -0.67461        0.00104
H          1.22269       -2.32377        0.00013
H          3.69578       -2.13501        0.00081
H          3.21716        2.88648        0.00439
H          0.77345        2.62942        0.00368
H         -1.67624        2.42659        0.00301
H         -4.42855        1.96433        0.00210
H         -6.01017       -0.10001        0.00024
H         -1.22149       -2.56543       -0.00058
