44
syn_C_S_2-OMe_p-CNbenz.log	Energy: -958571.3452144
C         -3.25947        0.75708        1.50525
C         -1.95175        0.42394        1.17479
C         -0.85165        0.75770        2.02790
C          0.41041        0.41036        1.66087
S          1.88947        0.73240        2.57354
C          0.67998       -0.28888        0.43067
C          2.10788       -0.54583        0.26556
C          2.75218       -1.19117       -0.78476
C          4.14006       -1.33650       -0.75305
C          4.80937       -2.00200       -1.83525
N          5.34895       -2.53932       -2.70939
C          2.86812       -0.05179        1.34018
C          4.25335       -0.19420        1.37681
C          4.88731       -0.83856        0.32608
C         -0.35081       -0.61853       -0.39976
C         -1.69644       -0.27718       -0.06194
C         -2.76158       -0.60329       -0.89374
C         -4.08557       -0.26924       -0.56549
C         -5.17245       -0.59617       -1.40440
C         -6.47463       -0.26308       -1.07406
C         -7.58270       -0.59453       -1.92703
C         -8.85253       -0.25017       -1.56948
O         -9.97231       -0.50520       -2.28499
C         -9.82292       -1.18570       -3.51127
C         -6.72489        0.43761        0.16323
C         -8.08476        0.77510        0.48915
C         -9.10479        0.44759       -0.33749
C         -5.67040        0.76425        0.99493
C         -4.33884        0.43003        0.66832
H         -3.45563        1.28510        2.43579
H         -1.04744        1.28501        2.95710
H          2.18883       -1.58165       -1.62606
H          4.83095        0.19056        2.21064
H          5.96480       -0.96184        0.33145
H         -0.16681       -1.14611       -1.33230
H         -2.56642       -1.13131       -1.82452
H         -4.97445       -1.12415       -2.33459
H         -7.37266       -1.12078       -2.85155
H        -10.82656       -1.28921       -3.92453
H         -9.38387       -2.18057       -3.36311
H         -9.19695       -0.61489       -4.20900
H         -8.27980        1.30238        1.41901
H        -10.13430        0.69671       -0.10281
H         -5.86685        1.29228        1.92556
