50
syn_S_NPh_diCF3_2-CF3.log	Energy: -1497893.3879880
C          0.87544       -1.75856       -0.11630
C         -0.29350       -0.99379       -0.03037
C         -1.57825       -1.60118       -0.06389
C         -2.67749       -0.79143        0.02541
N         -4.02365       -1.12565        0.00853
C         -4.51807       -2.46179       -0.03921
C         -4.29659       -3.30681        1.04670
C         -4.74701       -4.62107        0.99685
C         -5.42471       -5.08458       -0.12838
C         -5.64348       -4.23476       -1.20888
C         -5.18158       -2.92299       -1.17281
C         -2.58474        0.63920        0.14550
C         -3.93697        1.13268        0.20801
C         -4.75308        0.05260        0.12638
C         -6.24777        0.05760        0.15712
F         -6.73091       -0.77898        1.08782
F         -6.70257        1.28626        0.43010
F         -6.77838       -0.31447       -1.02285
C         -1.35312        1.24089        0.17832
C         -0.17886        0.44366        0.09324
C          1.09445        1.02106        0.12515
C          2.25763        0.25456        0.04022
C          3.54550        0.85656        0.07423
C          4.67241        0.07995       -0.01237
C          6.07006        0.48109        0.00180
C          6.43343        1.93278        0.12984
F          5.93599        2.44211        1.27126
F          7.74756        2.16068        0.12732
F          5.89708        2.64174       -0.87984
C          6.91757       -0.56774       -0.10713
C          8.42749       -0.57308       -0.13337
F          8.91056        0.12651       -1.16470
F          8.94772       -0.07370        0.99205
F          8.87885       -1.83356       -0.25814
C          4.54359       -1.34451       -0.13849
S          6.11460       -2.11842       -0.23438
C          3.32884       -1.96395       -0.17446
C          2.14297       -1.17806       -0.08516
H          0.79116       -2.83873       -0.21093
H         -1.67023       -2.67852       -0.15967
H         -3.77773       -2.92501        1.92040
H         -4.57665       -5.28068        1.84193
H         -5.78178       -6.10919       -0.16284
H         -6.16768       -4.59472       -2.08854
H         -5.33383       -2.25434       -2.01243
H         -4.25456        2.15954        0.30686
H         -1.25930        2.31967        0.26696
H          1.18066        2.10127        0.21860
H          3.61755        1.93482        0.16863
H          3.24552       -3.04260       -0.27010
