52
syn_S_NPh_3-OMe_m-CNbenz.log	Energy: -1089668.0978024
C         -3.28898        1.79451       -0.33438
C         -2.01228        1.23015       -0.31231
C         -0.85246        2.02115       -0.05242
C          0.36599        1.40752       -0.04102
N          1.63351        1.95132        0.17189
C          1.90807        3.31143        0.46217
C          1.32017        3.91620        1.57313
C          1.58609        5.25252        1.85119
C          2.45202        5.97958        1.03821
C          3.04413        5.36940       -0.06427
C          2.76536        4.03967       -0.36239
C          0.51707       -0.00111       -0.29656
C          1.94074       -0.28237       -0.22529
C          2.68878       -1.44586       -0.37141
C          4.06787       -1.38838       -0.22562
C          2.58260        0.94012        0.06320
C          3.95944        1.01738        0.22480
C          4.69063       -0.16511        0.07283
C          6.11865       -0.12401        0.22744
N          7.27104       -0.09101        0.35030
C         -0.57715       -0.77656       -0.54795
C         -1.87518       -0.18607       -0.55999
C         -3.01757       -0.94735       -0.81073
C         -4.29488       -0.38124       -0.83120
C         -5.45526       -1.16375       -1.08761
C         -6.68803       -0.57144       -1.09982
C         -7.98218       -1.18655       -1.33898
O         -8.01191       -2.51249       -1.58417
C         -9.28838       -3.07022       -1.81108
C         -9.01192       -0.31328       -1.28037
C         -6.82065        0.83515       -0.85576
S         -8.50483        1.33566       -0.92951
C         -5.73227        1.62078       -0.60578
C         -4.43384        1.03249       -0.58622
H         -3.39652        2.86107       -0.15006
H         -0.95675        3.08678        0.12529
H          0.66428        3.33353        2.21243
H          1.12553        5.72235        2.71470
H          2.66514        7.01975        1.26367
H          3.71630        5.93262       -0.70408
H          3.20242        3.56200       -1.23395
H          2.20156       -2.39007       -0.59406
H          4.67324       -2.28080       -0.33671
H          4.45742        1.95007        0.46383
H         -0.47752       -1.84094       -0.74444
H         -2.91113       -2.01392       -0.99669
H         -5.35869       -2.22946       -1.27311
H         -9.13315       -4.13423       -1.99051
H         -9.76523       -2.61429       -2.68846
H         -9.93675       -2.93493       -0.93565
H        -10.06389       -0.51625       -1.42067
H         -5.83410        2.68644       -0.42133
