53
syn_C_NPh_diOMe_2-CN.log	Energy: -863825.2186576
C          0.95644       -2.38832        0.21548
C         -0.09625       -1.55509       -0.16243
C         -1.45359       -1.93616        0.04348
C         -2.43789       -1.07099       -0.34520
N         -3.81897       -1.20129       -0.27218
C         -4.52541       -2.29228        0.29923
C         -4.24849       -2.67778        1.61084
C         -4.93024       -3.75283        2.16921
C         -5.90044       -4.42709        1.43194
C         -6.18108       -4.02945        0.12800
C         -5.48694       -2.97056       -0.44748
C         -2.15165        0.19646       -0.96923
C         -3.41952        0.80882       -1.26201
C         -4.38200       -0.05427       -0.83288
C         -5.79287        0.13203       -0.89174
N         -6.93813        0.30090       -0.95620
C         -0.85211        0.58104       -1.17625
C          0.20966       -0.27736       -0.77667
C          1.54444        0.08195       -0.96862
C          2.60007       -0.75477       -0.58770
C          3.95172       -0.38986       -0.78099
C          4.98286       -1.22612       -0.39997
C          6.36319       -0.86028       -0.60170
O          6.61435        0.35349       -1.18672
C          7.14977        0.25791       -2.50182
C          7.36761       -1.69755       -0.20589
O          8.69344       -1.40517       -0.38202
C          9.15889       -0.25986        0.32153
C          4.68393       -2.50373        0.20699
C          5.77708       -3.35827        0.58017
C          7.06054       -2.96716        0.38361
C          3.36510       -2.86835        0.40199
C          2.29575       -2.02707        0.02123
H          0.73135       -3.34820        0.67509
H         -1.68213       -2.89629        0.49489
H         -3.50910       -2.12835        2.18492
H         -4.71291       -4.05356        3.18940
H         -6.43844       -5.25968        1.87418
H         -6.93639       -4.55083       -0.45133
H         -5.68694       -2.66955       -1.47071
H         -3.59628        1.76842       -1.72483
H         -0.61954        1.53225       -1.64699
H          1.77230        1.04128       -1.42802
H          4.18710        0.56980       -1.23001
H          6.46511       -0.29532       -3.15590
H          8.12730       -0.23565       -2.49493
H          7.25400        1.28185       -2.86528
H         10.23540       -0.21469        0.14760
H          8.96708       -0.36458        1.39629
H          8.68315        0.65594       -0.04189
H          5.55527       -4.32234        1.02895
H          7.89842       -3.59747        0.66372
H          3.13965       -3.82876        0.86039
