57
syn_O_NPh_m-CF3benz_m-CNbenz.log	Energy: -1122981.1778159
C         -3.50897        0.96005        0.04616
C         -4.58171        0.06385        0.01138
C         -5.93247        0.52075        0.02489
C         -6.93421       -0.40616       -0.01331
N         -8.31584       -0.22035        0.00314
C         -8.97845        1.03295        0.04045
C         -8.74685        1.97026       -0.96605
C         -9.39252        3.20114       -0.92213
C        -10.28270        3.48993        0.10916
C        -10.51825        2.54744        1.10652
C         -9.85925        1.32276        1.08208
C         -6.66914       -1.82006       -0.05213
C         -7.96277       -2.48137       -0.05953
C         -8.34850       -3.81729       -0.10036
C         -9.69996       -4.13258       -0.11010
C         -8.93881       -1.46389       -0.02442
C        -10.29580       -1.75700       -0.04488
C        -10.65949       -3.10664       -0.08533
C        -12.05473       -3.45011       -0.10214
N        -13.18029       -3.72765       -0.11378
C         -5.38353       -2.27878       -0.06580
C         -4.30228       -1.35066       -0.03776
C         -2.97327       -1.78048       -0.05163
C         -1.90349       -0.88470       -0.01767
C         -0.55109       -1.34333       -0.03140
C          0.46325       -0.43203        0.00486
C          1.91614       -0.50253        0.00651
C          2.85468       -1.53001       -0.02492
C          4.20409       -1.20081       -0.00431
C          2.35267        0.82611        0.05747
C          3.68814        1.18196        0.07940
C          4.60993        0.13795        0.04762
C          6.08239        0.45046        0.01097
F          6.79385       -0.42903        0.73645
F          6.56357        0.39987       -1.24415
F          6.35014        1.67685        0.48740
C          0.16301        0.96693        0.05598
O          1.31348        1.71464        0.08762
C         -1.09762        1.46556        0.07066
C         -2.18101        0.53169        0.03358
H         -3.71677        2.02678        0.08499
H         -6.14112        1.58487        0.06984
H         -8.06778        1.72532       -1.77680
H         -9.20951        3.93095       -1.70466
H        -10.79242        4.44789        0.13518
H        -11.20792        2.76917        1.91491
H        -10.01731        0.59046        1.86793
H         -7.60308       -4.60602       -0.12698
H        -10.02636       -5.16592       -0.13953
H        -11.05061       -0.97903       -0.03442
H         -5.16799       -3.34376       -0.09302
H         -2.76570       -2.84779       -0.08883
H         -0.35165       -2.41073       -0.07005
H          2.54202       -2.56862       -0.06122
H          4.95357       -1.98421       -0.02191
H          3.99673        2.21905        0.12399
H         -1.28770        2.53263        0.10988
