56
syn_S_NPh_tetFbenz_m-CF3benz.log	Energy: -1516794.8330078
C         -3.55461        1.12341        0.01933
C         -4.58914        0.18256       -0.00056
C         -5.95737        0.58301       -0.00245
C         -6.92012       -0.38528       -0.02552
N         -8.30711       -0.25651       -0.01905
C         -9.02049        0.96834       -0.00234
C         -8.81972        1.90290       -1.01807
C         -9.51512        3.10700       -0.99352
C        -10.42437        3.37141        0.02756
C        -10.62929        2.43137        1.03400
C         -9.92104        1.23440        1.02892
C         -6.59645       -1.78808       -0.03251
C         -7.86272       -2.50179       -0.02982
C         -8.19768       -3.85210       -0.04621
C         -9.53727       -4.21567       -0.05626
C         -8.87836       -1.52690       -0.01996
C        -10.22404       -1.87523       -0.04110
C        -10.53269       -3.23119       -0.05674
C        -11.97390       -3.66300       -0.01766
F        -12.19629       -4.72460       -0.81139
F        -12.34487       -4.02303        1.22531
F        -12.80852       -2.68609       -0.40962
C         -5.29322       -2.19280       -0.03107
C         -4.25066       -1.22033       -0.01832
C         -2.90538       -1.59638       -0.01730
C         -1.87608       -0.65410        0.00186
C         -0.50669       -1.04819        0.00374
C          0.48366       -0.10491        0.02389
C          1.93104       -0.28440        0.03004
C          2.67386       -1.46044        0.01710
F          2.07114       -2.65342       -0.00452
C          4.06083       -1.42170        0.02638
F          4.76501       -2.55066        0.01395
C          2.61657        0.94190        0.05271
C          4.00073        0.98665        0.06200
F          4.64605        2.15384        0.08352
C          4.72573       -0.19726        0.04879
F          6.05443       -0.17080        0.05739
C          0.13588        1.29130        0.04295
S          1.55685        2.34244        0.06739
C         -1.15966        1.71043        0.04183
C         -2.21192        0.74489        0.02119
H         -3.80540        2.18158        0.03438
H         -6.21032        1.63823        0.01919
H         -8.12553        1.67630       -1.82133
H         -9.35568        3.83448       -1.78339
H        -10.97264        4.30817        0.03852
H        -11.33377        2.63406        1.83464
H        -10.05590        0.50500        1.82171
H         -7.42316       -4.61287       -0.05674
H         -9.81830       -5.26275       -0.07244
H        -11.00434       -1.12358       -0.05382
H         -5.03355       -3.24816       -0.03426
H         -2.65282       -2.65436       -0.03066
H         -0.26296       -2.10457       -0.01065
H         -1.41200        2.76676        0.05667
