38
syn_S_S_2-CN_m-CNbenz.log	Energy: -1145875.5499242
C         -3.44140        1.34764        0.50014
C         -2.12655        0.90413        0.36623
C         -1.01856        1.71713        0.75603
C          0.24827        1.24073        0.60567
S          1.73545        2.09083        1.02638
C          0.50846       -0.06623        0.06217
C          1.93880       -0.34600        0.00127
C          2.57922       -1.49709       -0.46089
C          3.96173       -1.57537       -0.43856
C          2.70919        0.72469        0.48609
C          4.09573        0.66370        0.51585
C          4.71686       -0.49708        0.04872
C          6.15053       -0.58658        0.06818
N          7.30710       -0.66139        0.08270
C         -0.53549       -0.86128       -0.31712
C         -1.88014       -0.40682       -0.17917
C         -2.96172       -1.19952       -0.55908
C         -4.28259       -0.75686       -0.42565
C         -5.38153       -1.56817       -0.81417
C         -6.66649       -1.10677       -0.67178
C         -7.90325       -1.76893       -1.00291
C         -8.99195       -1.01192       -0.72759
C        -10.34610       -1.39117       -0.94385
N        -11.45083       -1.69753       -1.11900
C         -6.89814        0.20412       -0.12678
S         -8.61422        0.56910       -0.04378
C         -5.86952        1.01519        0.25908
C         -4.52911        0.55458        0.11950
H         -3.62739        2.33686        0.91146
H         -1.20724        2.70456        1.16681
H          1.99744       -2.33228       -0.83822
H          4.46952       -2.46455       -0.79502
H          4.69203        1.48892        0.88948
H         -0.35907       -1.85126       -0.72967
H         -2.77567       -2.18890       -0.97064
H         -5.19425       -2.55668       -1.22487
H         -7.96357       -2.76424       -1.42631
H         -6.04994        2.00403        0.67007
