33
syn_C_O_diF_3-Cl.log	Energy: -942694.8366293
C         -2.43646        1.32962        0.31684
C         -3.63082        0.62789        0.43841
C         -4.88530        1.31122        0.53963
C         -6.00197        0.55206        0.65524
O         -7.28667        1.01485        0.76346
C         -5.99021       -0.87836        0.68091
C         -7.38589       -1.23589        0.81466
Cl        -8.01648       -2.83511        0.90210
C         -8.08724       -0.08747        0.85704
C         -4.81384       -1.56113        0.58677
C         -3.59576       -0.82275        0.46227
C         -2.36835       -1.47100        0.36284
C         -1.16231       -0.76463        0.24004
C          0.08117       -1.42337        0.13914
C          1.25744       -0.70747        0.01868
C          2.53075       -1.35410       -0.08542
F          2.56806       -2.69199       -0.06379
C          3.67621       -0.63816       -0.20344
F          4.85638       -1.26074       -0.29979
C          1.23257        0.73682       -0.00596
C          2.47353        1.44985       -0.13241
C          3.65449        0.78621       -0.22798
C          0.01459        1.38614        0.09291
C         -1.19802        0.67624        0.21646
H         -2.46045        2.41677        0.29879
H         -4.92961        2.39481        0.52348
H         -9.14537        0.10344        0.94993
H         -4.78869       -2.64659        0.60483
H         -2.34162       -2.55802        0.38076
H          0.11131       -2.50805        0.15664
H          2.45113        2.53518       -0.15058
H          4.60117        1.30653       -0.32416
H         -0.01196        2.47327        0.07509
