33
syn_C_O_2-F_2-Cl.log	Energy: -880445.6964136
C          0.95647       -1.59564       -0.52899
C         -0.18049       -0.84101       -0.26619
C         -1.49255       -1.37001       -0.49469
C         -2.54311       -0.56519       -0.21134
O         -3.86897       -0.89109       -0.36324
C         -2.42682        0.76926        0.29760
C         -3.79032        1.23637        0.44576
C         -4.56003        0.20991        0.03999
Cl        -6.25917        0.06970       -0.04919
C         -1.18870        1.29787        0.52452
C         -0.02863        0.50677        0.24880
C          1.25204        1.00566        0.46533
C          2.40265        0.24609        0.20111
C          3.70193        0.75057        0.42031
C          4.82996       -0.00678        0.15643
C          6.15579        0.49905        0.37686
C          7.22158       -0.28728        0.10064
F          8.46820        0.16805        0.30030
C          4.67506       -1.34903       -0.35700
C          5.85574       -2.12303       -0.62624
C          7.09515       -1.61488       -0.40677
C          3.40545       -1.85442       -0.57591
C          2.24920       -1.09225       -0.31061
H          0.84418       -2.60617       -0.91537
H         -1.62681       -2.37512       -0.87930
H         -4.13489        2.19474        0.80222
H         -1.06557        2.30579        0.90971
H          1.36690        2.01606        0.85149
H          3.81470        1.76094        0.80664
H          6.30231        1.50277        0.76165
H          5.73782       -3.13170       -1.01234
H          7.99575       -2.18558       -0.60478
H          3.29199       -2.86493       -0.96250
