48
syn_S_NPh_p-CNbenz_3-F.log	Energy: -1080073.0747713
C         -3.55085        1.13843        0.03770
C         -4.59887        0.20744        0.00965
C         -5.95640        0.62778        0.01563
C         -6.93835       -0.32738       -0.01951
N         -8.32171       -0.20481       -0.00534
C         -9.06710        0.99530        0.04093
C         -8.77322        2.03944       -0.83772
C         -9.51406        3.21490       -0.78411
C        -10.56236        3.34700        0.12270
C        -10.86281        2.29675        0.98568
C        -10.11246        1.12646        0.95595
C         -6.62403       -1.73192       -0.03074
C         -7.89255       -2.40399       -0.01049
F         -8.04307       -3.72945       -0.02696
C         -8.88148       -1.48346        0.01068
C         -5.32286       -2.16047       -0.03833
C         -4.27651       -1.20078       -0.02501
C         -2.93025       -1.58804       -0.03363
C         -1.89461       -0.65766       -0.00736
C         -0.52555       -1.05952       -0.01533
C          0.47235       -0.12832        0.01242
C          1.91795       -0.33247        0.01055
C          2.62005       -1.53297       -0.01988
C          4.01570       -1.51229       -0.01572
C          4.74458       -2.74917       -0.04713
N          5.33266       -3.74795       -0.07264
C          2.62912        0.88005        0.04509
C          4.02188        0.90623        0.04933
C          4.71349       -0.29455        0.01876
C          0.13843        1.27090        0.04965
S          1.58068        2.29168        0.08085
C         -1.15161        1.70330        0.05856
C         -2.21506        0.74740        0.03028
H         -3.79114        2.19889        0.06591
H         -6.18980        1.68654        0.05787
H         -7.98069        1.91775       -1.56894
H         -9.28036        4.02462       -1.46859
H        -11.14340        4.26316        0.15523
H        -11.67598        2.39235        1.69863
H        -10.32185        0.31805        1.64997
H         -9.95267       -1.61683        0.00214
H         -5.08557       -3.22007       -0.04503
H         -2.68931       -2.64850       -0.06003
H         -0.29456       -2.12150       -0.04353
H          2.09551       -2.48260       -0.04669
H          4.56119        1.84720        0.07607
H          5.79800       -0.30043        0.02140
H         -1.39445        2.76163        0.08705
