40
syn_C_S_2-CN_benz.log	Energy: -886727.3942854
C         -3.45657        1.05932        1.00824
C         -2.14786        0.68403        0.73401
C         -1.03461        1.32372        1.36685
C          0.22986        0.92284        1.06743
S          1.71846        1.58657        1.74066
C          0.49104       -0.13691        0.12334
C          1.92338       -0.38049       -0.02566
C          2.56506       -1.31605       -0.83852
C          3.95123       -1.39207       -0.83823
C          2.69463        0.47028        0.78082
C          4.08414        0.40061        0.78701
C          4.70513       -0.53777       -0.02938
C         -0.55232       -0.76203       -0.49284
C         -1.90122       -0.37905       -0.21383
C         -2.97794       -1.00265       -0.83040
C         -4.30472       -0.62749       -0.55720
C         -5.40178       -1.25573       -1.17887
C         -6.70521       -0.87680       -0.90079
C         -7.82256       -1.51247       -1.53001
C         -9.09946       -1.12292       -1.24080
C        -10.20932       -1.77096       -1.88078
N        -11.11107       -2.28925       -2.39332
C         -6.95342        0.18435        0.04550
C         -8.31468        0.55727        0.31547
C         -9.35141       -0.06515       -0.29764
C         -5.88273        0.80794        0.66148
C         -4.55105        0.43265        0.38817
H         -3.64262        1.85905        1.72133
H         -1.22203        2.12226        2.07879
H          1.98169       -1.98151       -1.46843
H          4.45184       -2.11903       -1.46972
H          4.67201        1.06300        1.41442
H          5.78864       -0.60500       -0.03615
H         -0.37644       -1.56234       -1.20701
H         -2.79299       -1.80250       -1.54385
H         -5.21709       -2.05551       -1.89237
H         -7.64266       -2.31142       -2.24306
H         -8.50047        1.35600        1.02793
H        -10.37735        0.21930       -0.09100
H         -6.06762        1.60775        1.37486
