54
syn_C_NPh_3-CN_p-CF3benz.log	Energy: -1027979.2095555
C         -3.45948        1.30933       -0.14041
C         -2.15357        0.83385       -0.12245
C         -1.03898        1.72010        0.01545
C          0.21561        1.19058        0.03021
N          1.44925        1.83291        0.13993
C          1.63585        3.23044        0.28822
C          1.05547        3.89716        1.36717
C          1.23238        5.26963        1.50479
C          2.00228        5.97373        0.58235
C          2.58770        5.30265       -0.48799
C          2.39736        3.93371       -0.64478
C          0.45690       -0.22620       -0.10386
C          1.90061       -0.39959       -0.06704
C          2.72177       -1.51754       -0.13847
C          4.09795       -1.34076       -0.05505
C          5.03325       -2.51270       -0.12424
F          4.38413       -3.67573       -0.29609
F          5.90846       -2.38918       -1.14046
F          5.76851       -2.62772        0.99816
C          2.46284        0.88237        0.08242
C          3.84122        1.06550        0.17750
C          4.64642       -0.06104        0.10494
C         -0.58583       -1.09128       -0.23701
C         -1.92657       -0.59212       -0.24709
C         -3.01385       -1.44731       -0.37814
C         -4.33446       -0.96920       -0.39486
C         -5.43859       -1.83617       -0.52726
C         -6.73421       -1.35308       -0.54300
C         -7.89015       -2.21357       -0.67696
C         -7.69661       -3.62987       -0.79921
N         -7.52310       -4.77244       -0.89711
C         -9.15760       -1.70159       -0.68874
C         -6.96729        0.06536       -0.42216
C         -8.31744        0.55070       -0.44044
C         -9.37273       -0.29717       -0.56852
C         -5.88818        0.92370       -0.29168
C         -4.56174        0.44825       -0.27340
H         -3.63607        2.37863       -0.04906
H         -1.20983        2.78849        0.10081
H          0.47497        3.33426        2.09147
H          0.77765        5.78747        2.34362
H          2.14549        7.04355        0.69737
H          3.18427        5.84765       -1.21295
H          2.82905        3.40467       -1.48889
H          2.30032       -2.50992       -0.25429
H          4.27156        2.05206        0.30923
H          5.72392        0.04959        0.17555
H         -0.41971       -2.16020       -0.34081
H         -2.84071       -2.51696       -0.47124
H         -5.25976       -2.90458       -0.61830
H        -10.00622       -2.36988       -0.79042
H         -8.47949        1.62139       -0.34875
H        -10.38848        0.08370       -0.58082
H         -6.06605        1.99286       -0.20078
