51
syn_O_NPh_2-Cl_p-OMebenz.log	Energy: -1117518.6369044
C         -3.48247        1.26715       -0.15818
C         -2.16619        0.80312       -0.11455
C         -1.06051        1.70308       -0.04777
C          0.20278        1.18678       -0.00294
N          1.43005        1.84214        0.04940
C          1.61385        3.24335        0.08602
C          0.99427        4.00340        1.07934
C          1.16927        5.38270        1.10544
C          1.97808        6.00662        0.15906
C          2.60407        5.24494       -0.82414
C          2.41557        3.86784       -0.87077
C          0.44842       -0.23315       -0.04049
C          1.89327       -0.40398       -0.00800
C          2.70766       -1.52568       -0.00725
C          4.09230       -1.35669        0.05019
O          4.82460       -2.50603        0.04200
C          6.22603       -2.39756        0.10856
C          2.45479        0.88610        0.04451
C          3.82781        1.06147        0.11538
C          4.64338       -0.07096        0.11494
C         -0.59303       -1.11049       -0.10420
C         -1.93349       -0.62082       -0.13880
C         -3.02449       -1.48751       -0.20155
C         -4.34354       -1.02479       -0.24376
C         -5.44449       -1.92920       -0.30793
C         -6.71790       -1.43012       -0.34858
C         -8.04876       -1.99851       -0.41506
C         -8.88175       -0.94148       -0.42600
Cl       -10.58784       -0.87722       -0.49422
C         -6.91633       -0.01552       -0.32592
O         -8.26011        0.26743       -0.37437
C         -5.91546        0.89834       -0.26558
C         -4.57701        0.40060       -0.22207
H         -3.66273        2.33971       -0.14212
H         -1.24055        2.77338       -0.04009
H          0.38496        3.50576        1.82729
H          0.68216        5.96977        1.87811
H          2.11954        7.08255        0.18741
H          3.23095        5.72542       -1.56922
H          2.87831        3.26973       -1.64970
H          2.29989       -2.53057       -0.04611
H          6.60891       -3.41884        0.08954
H          6.55154       -1.90850        1.03653
H          6.63143       -1.84536       -0.74996
H          4.26858        2.05079        0.17680
H          5.71689        0.06711        0.16910
H         -0.41962       -2.18314       -0.13525
H         -2.84346       -2.56024       -0.21929
H         -5.25554       -2.99875       -0.32370
H         -8.33197       -3.03918       -0.44937
H         -6.11372        1.96460       -0.25087
