43
syn_C_S_C_m-OMebenz.log	Energy: -900708.5876402
C         -3.57432        1.28435        0.56055
C         -2.25044        0.90606        0.38545
C         -1.16677        1.77645        0.73229
C          0.11365        1.36265        0.54300
S          1.57298        2.28834        0.90738
C          0.42577        0.06258       -0.00105
C          1.86624       -0.13932       -0.10432
C          2.56581       -1.25506       -0.57681
C          3.94652       -1.25431       -0.59561
C          2.59777        0.96566        0.34418
C          3.99107        0.99028        0.33503
C          4.66344       -0.13435       -0.14101
O          6.01185       -0.24471       -0.20570
C          6.79124        0.84533        0.23440
C         -0.58869       -0.78397       -0.33911
C         -1.95444       -0.39902       -0.16088
C         -3.00187       -1.24590       -0.49889
C         -4.34539       -0.86980       -0.32460
C         -5.41356       -1.72370       -0.66544
C         -6.73393       -1.34336       -0.48968
C         -7.82944       -2.20604       -0.83388
C         -9.11616       -1.80904       -0.65158
C         -7.02897       -0.04007        0.05635
C         -8.40464        0.33401        0.23038
C         -9.40893       -0.51589       -0.10973
C         -5.98669        0.80758        0.39488
C         -4.63990        0.43154        0.22040
H         -3.79754        2.26638        0.97171
H         -1.39104        2.75698        1.14254
H          2.02424       -2.12744       -0.93114
H          4.50671       -2.10917       -0.95795
H          4.52332        1.86445        0.69037
H          7.83065        0.54687        0.09491
H          6.61587        1.06168        1.29597
H          6.59075        1.74729       -0.35785
H         -0.37610       -1.76752       -0.75055
H         -2.77987       -2.22824       -0.91016
H         -5.19045       -2.70584       -1.07683
H         -7.60426       -3.18680       -1.24485
H         -9.93527       -2.47102       -0.91605
H         -8.62409        1.31589        0.64174
H        -10.44484       -0.22041        0.02701
H         -6.20886        1.78988        0.80634
