43
syn_C_S_m-OMebenz_diF.log	Energy: -1025200.7839782
C         -2.63907        1.08346       -0.46370
C         -3.81385        0.58919        0.10225
C         -5.05757        1.27623       -0.04455
C         -6.17976        0.75688        0.52555
S         -7.80753        1.44279        0.46516
C         -6.14237       -0.47018        1.27412
C         -7.45450       -0.80323        1.77220
F         -7.67703       -1.89942        2.49816
C         -8.39518        0.09197        1.42979
F         -9.67954        0.04697        1.74401
C         -4.96755       -1.15038        1.43172
C         -3.76886       -0.64331        0.85202
C         -2.55001       -1.30873        0.99067
C         -1.37218       -0.81304        0.42290
C         -0.13025       -1.48646        0.56089
C          1.03426       -1.00733        0.00632
C          2.32855       -1.69071        0.13782
C          2.48975       -2.89197        0.83940
C          3.71775       -3.52314        0.95296
C          3.47914       -1.12706       -0.46484
C          4.71767       -1.76360       -0.35010
C          4.84865       -2.95438        0.35160
O          6.09484       -3.48687        0.40033
C          6.27450       -4.69655        1.10225
C          0.97888        0.22947       -0.74232
C          2.19210        0.75248       -1.33359
C          3.36937        0.11526       -1.20362
C         -0.21463        0.89826       -0.88848
C         -1.41938        0.41393       -0.32243
H         -2.67089        2.01225       -1.02896
H         -5.08618        2.20333       -0.60987
H         -4.94150       -2.07696        1.99733
H         -2.51668       -2.23762        1.55568
H         -0.13329       -2.41049        1.13054
H          1.63772       -3.36251        1.31813
H          3.78408       -4.45159        1.50799
H          5.60079       -1.33238       -0.81181
H          7.33400       -4.93955        1.01464
H          5.68060       -5.50913        0.66448
H          6.01548       -4.58969        2.16345
H          2.12541        1.68316       -1.89080
H          4.27084        0.52187       -1.65388
H         -0.23933        1.82691       -1.45454
