44
syn_C_O_p-OMebenz_2-CN.log	Energy: -755887.7794213
C          1.08034       -1.27822        1.54583
C          0.17547       -0.72294        0.63913
C         -1.21492       -0.62031        0.94904
C         -2.02319       -0.06684        0.00907
O         -3.37452        0.11680        0.12009
C         -1.56578        0.41275       -1.25721
C         -2.74866        0.90877       -1.92018
C         -3.76646        0.70226       -1.05469
C         -5.15126        1.00097       -1.19160
N         -6.27351        1.25506       -1.32968
C         -0.23721        0.32543       -1.57802
C          0.66697       -0.24519       -0.63668
C          2.03151       -0.35490       -0.92078
C          2.93174       -0.91116       -0.01044
C          4.31817       -1.02331       -0.29820
C          5.21209       -1.56960        0.59135
C          6.65153       -1.69160        0.30416
C          7.21518       -1.25993       -0.89917
C          8.57702       -1.38493       -1.14914
O          8.99620       -0.92694       -2.35596
C         10.36772       -1.02825       -2.66649
C          7.49939       -2.26723        1.28074
C          8.86802       -2.38448        1.01090
C          9.41786       -1.95414       -0.18361
C          4.71471       -2.04491        1.86536
C          5.63974       -2.62301        2.81669
C          6.95207       -2.72654        2.53886
C          3.37517       -1.94528        2.16333
C          2.44299       -1.38463        1.25502
H          0.71439       -1.63780        2.50469
H         -1.60026       -0.97295        1.89938
H         -2.82863        1.35478       -2.90045
H          0.13860        0.68163       -2.53269
H          2.40053        0.00393       -1.87911
H          4.65224       -0.65548       -1.26304
H          6.61546       -0.81228       -1.68297
H         10.98432       -0.45406       -1.96306
H         10.48055       -0.60881       -3.66680
H         10.70388       -2.07307       -2.67351
H          9.51490       -2.82709        1.76409
H         10.48242       -2.06263       -0.35419
H          5.24287       -2.97246        3.76580
H          7.63586       -3.16267        3.26262
H          3.01525       -2.30640        3.12415
