50
syn_C_NPh_diCF3_diF.log	Energy: -1209656.3015909
C         -3.33633       -0.11478        1.54300
C         -4.38343       -0.41624        0.67721
C         -5.74105       -0.16670        1.04357
C         -6.72492       -0.48739        0.15636
N         -8.10633       -0.33270        0.25684
C         -8.83665        0.11363        1.38783
C         -8.59751       -0.46360        2.63491
C         -9.30030       -0.01277        3.74669
C        -10.25592        0.99100        3.61329
C        -10.50125        1.55144        2.36267
C         -9.78628        1.12482        1.24913
C         -6.43413       -1.05098       -1.14246
C         -7.70442       -1.21833       -1.79028
F         -7.89606       -1.71298       -3.01351
C         -8.65665       -0.78669       -0.93502
F         -9.96475       -0.75880       -1.08784
C         -5.14495       -1.29715       -1.52002
C         -4.08133       -0.99297       -0.61939
C         -2.75348       -1.23315       -0.96075
C         -1.69735       -0.93178       -0.08735
C         -0.35559       -1.18093       -0.44356
C          0.70141       -0.88746        0.40812
C          2.09933       -1.13094        0.07508
C          2.35030       -1.76065       -1.28592
F          1.70669       -2.94095       -1.38250
F          1.87641       -0.96757       -2.26707
F          3.62556       -2.00342       -1.57742
C          3.08768       -0.79675        0.96698
C          4.58197       -0.98843        0.72625
F          5.01565       -0.30603       -0.34155
F          5.29952       -0.53812        1.77337
F          4.91266       -2.27763        0.57620
C          0.38799       -0.30520        1.69304
C          1.46035        0.01226        2.58124
C          2.74739       -0.21866        2.23538
C         -0.92473       -0.05775        2.05470
C         -1.99882       -0.35626        1.19617
H         -3.55865        0.31999        2.51482
H         -5.96628        0.27469        2.00902
H         -7.87082       -1.26485        2.72410
H         -9.11010       -0.45982        4.71746
H        -10.80930        1.33448        4.48158
H        -11.24447        2.33485        2.25252
H         -9.95777        1.57233        0.27609
H         -4.92020       -1.71581       -2.49600
H         -2.52661       -1.66633       -1.93211
H         -0.18270       -1.61399       -1.41910
H          1.22429        0.44890        3.54757
H          3.54455        0.03242        2.92078
H         -1.13083        0.38081        3.02826
