57
syn_O_NPh_m-OMebenz_tetFbenz.log	Energy: -1174518.5902814
C         -3.76890       -1.26894        0.66742
C         -4.86615       -0.66558        0.04469
C         -6.20208       -1.07084        0.33726
C         -7.22865       -0.43765       -0.30116
N         -8.60624       -0.65345       -0.19425
C         -9.19830       -1.66789        0.60630
C         -9.01488       -1.64213        1.98753
C         -9.56375       -2.65000        2.77356
C        -10.30708       -3.66939        2.18506
C        -10.49326       -3.68536        0.80495
C         -9.93050       -2.69286        0.01114
C         -7.00139        0.60299       -1.26491
C         -8.31108        1.00221       -1.74334
C         -8.72699        1.95681       -2.65815
F         -7.83516        2.71394       -3.30289
C        -10.07915        2.13230       -2.90778
F        -10.49994        3.04237       -3.78714
C         -9.25935        0.20846       -1.06580
C        -10.61851        0.39280       -1.30009
F        -11.55735       -0.31639       -0.66516
C        -11.01280        1.34954       -2.22730
F        -12.30907        1.53075       -2.46834
C         -5.73189        1.00924       -1.56240
C         -4.62786        0.38737       -0.91093
C         -3.31208        0.77316       -1.18261
C         -2.21828        0.17181       -0.55971
C         -0.87933        0.58028       -0.85011
C          0.16117       -0.03492       -0.21857
C          1.60908        0.08904       -0.24026
C          2.53375        0.88775       -0.91504
C          3.88356        0.71157       -0.66695
C          2.08132       -0.86250        0.66409
C          3.42379       -1.06940        0.93990
C          4.32889       -0.25766        0.25206
O          5.67241       -0.32990        0.40465
C          6.18915       -1.27923        1.31082
C         -0.10207       -1.08085        0.72568
O          1.06740       -1.57157        1.25093
C         -1.34590       -1.51386        1.04465
C         -2.45579       -0.88421        0.39589
H         -3.94556       -2.06460        1.38764
H         -6.38008       -1.86814        1.05170
H         -8.44844       -0.83114        2.43468
H         -9.41990       -2.63017        3.84938
H        -10.74186       -4.45041        2.80099
H        -11.07074       -4.47927        0.34177
H        -10.05635       -2.70484       -1.06668
H         -5.55413        1.79394       -2.29056
H         -3.13650        1.56815       -1.90421
H         -0.71233        1.37597       -1.57095
H          2.20379        1.63876       -1.62617
H          4.63141        1.31291       -1.17163
H          3.72622       -1.82490        1.65324
H          7.27316       -1.16620        1.27831
H          5.92223       -2.30208        1.01600
H          5.83548       -1.09229        2.33277
H         -1.50488       -2.30906        1.76508
