47
syn_O_NPh_diCF3_2-Cl.log	Energy: -1372166.5330035
C          0.76545       -1.58408       -0.04685
C         -0.43455       -0.86829        0.00188
C         -1.69357       -1.53248       -0.00664
C         -2.82598       -0.77014        0.04678
N         -4.15951       -1.16621        0.04257
C         -4.60980       -2.51412        0.00437
C         -4.30042       -3.36617        1.06314
C         -4.71177       -4.69392        1.01911
C         -5.44298       -5.16336       -0.06910
C         -5.75406       -4.30560       -1.12092
C         -5.32900       -2.98174       -1.09328
C         -2.79967        0.66910        0.09815
C         -4.17225        1.10987        0.12767
C         -4.93157       -0.01159        0.09317
Cl        -6.64533       -0.11845        0.14110
C         -1.59578        1.32335        0.10596
C         -0.38538        0.57547        0.06104
C          0.86075        1.20751        0.06904
C          2.06023        0.49295        0.02106
C          3.31627        1.16649        0.02754
C          4.46616        0.42507       -0.01871
C          5.89008        0.71227       -0.03477
C          6.52642        2.06394        0.03499
F          5.65276        3.01428       -0.34186
F          6.92866        2.36594        1.27771
F          7.59271        2.16085       -0.77057
C          6.50802       -0.48854       -0.07379
C          7.96010       -0.87631       -0.13719
F          8.72331        0.03586        0.47036
F          8.15280       -2.05335        0.46386
F          8.37523       -0.98918       -1.40487
C          4.38476       -0.99711       -0.07719
O          5.64695       -1.53358       -0.11415
C          3.22415       -1.69956       -0.08924
C          2.00921       -0.95118       -0.03941
H          0.72811       -2.67006       -0.09265
H         -1.73705       -2.61600       -0.05631
H         -3.74308       -2.98065        1.91115
H         -4.46973       -5.35907        1.84211
H         -5.76979       -6.19818       -0.09779
H         -6.32062       -4.66957       -1.97226
H         -5.54852       -2.30817       -1.91526
H         -4.53906        2.12363        0.17780
H         -1.54916        2.40817        0.14273
H          0.89877        2.29369        0.11317
H          3.34214        2.24928        0.06996
H          3.21173       -2.78300       -0.13418
