39
syn_C_O_3-F_diCF3.log	Energy: -1014934.4416472
C         -1.96139        0.48291        1.96375
C         -3.22773        0.57893        1.39579
C         -4.36002        0.98574        2.16981
C         -5.55323        1.05260        1.53166
O         -6.74538        1.42584        2.09772
C         -5.75036        0.74460        0.15112
C         -7.17093        0.95181       -0.07171
C         -7.89515        0.79373       -1.37074
F         -7.22489       -0.04579       -2.17986
F         -9.12533        0.29168       -1.20457
F         -8.01554        1.95949       -2.02107
C         -7.67299        1.36647        1.11152
C         -9.06983        1.72130        1.54782
F         -9.03163        2.60772        2.54523
F         -9.76173        2.25401        0.53763
F         -9.72862        0.64012        1.98078
C         -4.68853        0.34976       -0.61319
C         -3.39745        0.26096       -0.00910
C         -2.28665       -0.13169       -0.75161
C         -1.00975       -0.22789       -0.18087
C          0.11547       -0.62471       -0.93500
C          1.36478       -0.71291       -0.35280
C          2.52862       -1.11225       -1.09021
F          2.35114       -1.40088       -2.38941
C          3.75841       -1.20365       -0.53439
C          1.54513       -0.39980        1.04584
C          2.86115       -0.50429        1.61420
C          3.91866       -0.88974        0.85376
C          0.44473       -0.01034        1.78857
C         -0.84164        0.08769        1.21594
H         -1.83374        0.72111        3.01702
H         -4.25829        1.23002        3.22135
H         -4.80506        0.10570       -1.66283
H         -2.41208       -0.37074       -1.80501
H         -0.00664       -0.86289       -1.98671
H          4.60315       -1.51096       -1.14020
H          2.99083       -0.26783        2.66622
H          4.90872       -0.96577        1.29189
H          0.56989        0.22776        2.84226
