49
syn_C_C_2-CF3_p-OMebenz.log	Energy: -910858.0702759
C         -2.13661       -1.79693        1.42540
C         -3.17781       -0.88866        1.24748
C         -4.52282       -1.19402        1.58130
C         -5.54373       -0.29138        1.40118
C         -6.90298       -0.63828        1.75304
C         -7.91056        0.23682        1.58097
C         -5.26529        1.02317        0.85407
C         -6.38343        1.96370        0.67416
C         -6.19590        3.25570        0.14905
C         -7.26719        4.12130       -0.00970
O         -7.17368        5.37966       -0.50656
C         -5.90262        5.85103       -0.89231
C         -7.68281        1.55813        1.03875
C         -8.75446        2.45454        0.86821
C         -8.56179        3.71489        0.35461
C         -3.96712        1.33238        0.52730
C         -2.89454        0.41553        0.70425
C         -1.58321        0.74264        0.36763
C         -0.53075       -0.16684        0.54389
C          0.80188        0.15474        0.20515
C          1.83234       -0.74981        0.38194
C          3.18840       -0.42692        0.03801
C          4.18303       -1.33167        0.21958
C          5.60501       -1.01035       -0.13752
F          6.07831       -1.86206       -1.06646
F          5.75028        0.23233       -0.62199
F          6.41350       -1.12201        0.93311
C          1.54900       -2.05743        0.92571
C          2.64118       -2.97726        1.09746
C          3.90789       -2.63378        0.75975
C          0.24952       -2.38587        1.26237
C         -0.81510       -1.47351        1.08788
H         -2.35273       -2.78084        1.83547
H         -4.74694       -2.17580        1.99244
H         -7.08796       -1.62797        2.16130
H         -8.92838       -0.03470        1.84895
H         -5.20358        3.57931       -0.13523
H         -6.05660        6.86744       -1.25618
H         -5.47397        5.23976       -1.69709
H         -5.20673        5.87211       -0.04356
H         -9.75452        2.13638        1.15114
H         -9.38364        4.40997        0.22091
H         -3.71406        2.30436        0.11593
H         -1.36738        1.72680       -0.04258
H          1.01713        1.13903       -0.20468
H          3.40371        0.55506       -0.37054
H          2.42865       -3.96104        1.50659
H          4.72607       -3.33401        0.89258
H          0.03463       -3.37023        1.67210
