51
syn_S_NPh_m-OMebenz_C.log	Energy: -1031806.1187103
C         -3.59721        1.19249        0.03681
C         -4.63456        0.25100       -0.00235
C         -5.99864        0.65242        0.00884
C         -6.96419       -0.31686       -0.03781
N         -8.35162       -0.20982       -0.02011
C         -9.11115        0.98118        0.01731
C         -8.82405        2.02802       -0.86067
C         -9.58249        3.19251       -0.81785
C        -10.64106        3.31238        0.07887
C        -10.93352        2.26080        0.94282
C        -10.16594        1.10139        0.92313
C         -6.64788       -1.72174       -0.06814
C         -7.90676       -2.42880       -0.06232
C         -8.88534       -1.49284       -0.02777
C         -5.33633       -2.12281       -0.08064
C         -4.29845       -1.15221       -0.05422
C         -2.94762       -1.52371       -0.06737
C         -1.92047       -0.58376       -0.02992
C         -0.54615       -0.96966       -0.04285
C          0.44410       -0.03012       -0.00407
C          1.89057       -0.21603       -0.00846
C          2.62422       -1.40636       -0.05324
C          4.00492       -1.37436       -0.04903
C          2.58851        0.99566        0.04031
C          3.98123        1.05350        0.04546
C          4.68757       -0.14722        0.00017
O          6.04013       -0.23617       -0.00042
C          6.78522        0.95985        0.04753
C          0.09204        1.36548        0.05009
S          1.52258        2.40140        0.09347
C         -1.20302        1.78284        0.06434
C         -2.25654        0.81650        0.02462
H         -3.84904        2.25014        0.07791
H         -6.24664        1.70760        0.06426
H         -8.02088        1.91649       -1.58178
H         -9.35346        4.00394       -1.50199
H        -11.23510        4.22051        0.10368
H        -11.75369        2.34716        1.64903
H        -10.36852        0.29261        1.61872
H         -8.04777       -3.49933       -0.09149
H         -9.95982       -1.61493       -0.03577
H         -5.07649       -3.17793       -0.10140
H         -2.69488       -2.58131       -0.10671
H         -0.30329       -2.02872       -0.08386
H          2.10912       -2.36197       -0.09147
H          4.59086       -2.28623       -0.08317
H          4.48672        2.01099        0.08397
H          7.83394        0.66115        0.03804
H          6.57831        1.52585        0.96489
H          6.58188        1.59532       -0.82400
H         -1.45742        2.83826        0.10566
