42
syn_C_O_m-CF3benz_diCl.log	Energy: -1414406.4929690
C         -2.48450        1.33124        0.95605
C         -3.72090        0.74399        0.68971
C         -4.93751        1.48133        0.83898
C         -6.09405        0.83322        0.55868
O         -7.35748        1.36758        0.64104
C         -6.16220       -0.52663        0.12867
C         -7.57543       -0.77862       -0.04507
Cl        -8.29001       -2.25108       -0.55408
C         -8.20723        0.37153        0.27231
Cl        -9.86113        0.75690        0.28158
C         -5.01947       -1.25724       -0.02331
C         -3.76422       -0.63658        0.25487
C         -2.56597       -1.33863        0.11516
C         -1.32800       -0.74674        0.38288
C         -0.10977       -1.46003        0.24065
C          1.11329       -0.88580        0.50167
C          2.38383       -1.61092        0.35874
C          2.44972       -2.95328       -0.05683
C          3.65569       -3.61053       -0.18193
C          3.59444       -0.94381        0.64820
C          4.81663       -1.62304        0.51643
C          4.85073       -2.93971        0.10728
C          6.15227       -3.67246       -0.05967
F          6.14548       -4.84101        0.60678
F          6.38622       -3.96684       -1.35161
F          7.20094       -2.96223        0.38424
C          1.14796        0.49330        0.93589
C          2.42342        1.11475        1.21571
C          3.57808        0.43750        1.08056
C         -0.02309        1.20243        1.07990
C         -1.28710        0.62240        0.81408
H         -2.44981        2.36791        1.28275
H         -4.92541        2.51604        1.16347
H         -5.05181       -2.29239       -0.34938
H         -2.59799       -2.37559       -0.21149
H         -0.18049       -2.49213       -0.08722
H          1.54224       -3.49959       -0.28691
H          3.68000       -4.64730       -0.50153
H          5.73983       -1.09957        0.74287
H          2.42451        2.15156        1.54074
H          4.52943        0.91677        1.29425
H          0.01852        2.23885        1.40721
