42
syn_S_NPh_3-CN_diF.log	Energy: -1045933.6259317
C          0.90678        1.13742        0.45964
C         -0.28171        0.40982        0.57010
C         -1.55006        1.05526        0.50510
C         -2.67637        0.29091        0.61325
N         -4.01826        0.66639        0.60038
C         -4.54192        1.96368        0.36710
C         -4.11470        2.69041       -0.74413
C         -4.61488        3.96926       -0.96243
C         -5.55603        4.51279       -0.09215
C         -5.99031        3.77547        1.00610
C         -5.47791        2.50558        1.24678
C         -2.61618       -1.13666        0.80923
C         -3.97845       -1.57735        0.90874
F         -4.37978       -2.83570        1.09218
C         -4.76787       -0.48841        0.77980
F         -6.08286       -0.40396        0.79204
C         -1.40954       -1.77789        0.87809
C         -0.21012       -1.02215        0.75445
C          1.04505       -1.63431        0.81329
C          2.23062       -0.90577        0.70112
C          3.50367       -1.53959        0.76224
C          4.64518       -0.79393        0.64945
C          6.03384       -1.23017        0.68362
C          6.41518       -2.59445        0.85137
N          6.69146       -3.71235        0.98922
C          6.91591       -0.21121        0.54022
C          4.56291        0.62797        0.46948
S          6.16920        1.34520        0.35355
C          3.36478        1.27621        0.40530
C          2.15866        0.52332        0.51972
H          0.85354        2.21520        0.32284
H         -1.60224        2.13180        0.37861
H         -3.40213        2.24731       -1.43254
H         -4.27830        4.53546       -1.82533
H         -5.95141        5.50780       -0.27029
H         -6.72323        4.19410        1.68863
H         -5.79658        1.93457        2.11219
H         -1.35749       -2.85151        1.03014
H          1.09962       -2.71165        0.95147
H          3.56099       -2.61640        0.89882
H          7.99472       -0.29428        0.53419
H          3.30778        2.35230        0.26926
