43
syn_C_S_2-CF3_p-CNbenz.log	Energy: -1098169.5903844
C         -3.31061        1.09051        1.22225
C         -2.01218        0.68663        0.94071
C         -0.88964        1.21506        1.65545
C          0.36317        0.78915        1.34444
S          1.86385        1.32079        2.10907
C          0.60262       -0.18549        0.30984
C          2.02730       -0.47424        0.16955
C          2.64606       -1.35287       -0.71353
C          4.03517       -1.48565       -0.68792
C          4.67866       -2.39156       -1.59767
N          5.19683       -3.12319       -2.33252
C          2.81326        0.26370        1.07154
C          4.19985        0.13508        1.10133
C          4.80853       -0.74264        0.21799
C         -0.44881       -0.70457       -0.38600
C         -1.78660       -0.29126       -0.09910
C         -2.87245       -0.80695       -0.79525
C         -4.18840       -0.40235       -0.51493
C         -5.29547       -0.92132       -1.21691
C         -6.58746       -0.51523       -0.93141
C         -7.71790       -1.04045       -1.64235
C         -8.97558       -0.62689       -1.34393
C        -10.16958       -1.16809       -2.07635
F         -9.83679       -2.05821       -3.02277
F        -11.02230       -1.77679       -1.23178
F        -10.86036       -0.18074       -2.67550
C         -6.81455        0.46085        0.10635
C         -8.16634        0.86397        0.38160
C         -9.20812        0.34384       -0.31280
C         -5.73554        0.97752        0.80200
C         -4.41394        0.57289        0.52202
H         -3.48173        1.82638        2.00444
H         -1.06148        1.94992        2.43643
H          2.06242       -1.93430       -1.41985
H          4.79798        0.70897        1.80114
H          5.88660       -0.86058        0.22164
H         -0.28872       -1.44055       -1.16971
H         -2.70262       -1.54295       -1.57776
H         -5.12557       -1.65728       -1.99941
H         -7.54922       -1.77476       -2.42320
H         -8.33836        1.59913        1.16268
H        -10.22572        0.65373       -0.09874
H         -5.90578        1.71348        1.58439
