44
syn_S_O_p-CNbenz_m-CNbenz.log	Energy: -1039591.2551232
C         -3.57878        1.06111       -0.00016
C         -4.59479        0.10334       -0.00025
C         -5.97356        0.48355       -0.00072
C         -6.89780       -0.50843       -0.00077
O         -8.25810       -0.32750       -0.00119
C         -6.56667       -1.90085       -0.00039
C         -7.84688       -2.58983       -0.00060
C         -8.24664       -3.92319       -0.00044
C         -9.60452       -4.21268       -0.00076
C         -8.81393       -1.57589       -0.00109
C        -10.17128       -1.82861       -0.00141
C        -10.55316       -3.17571       -0.00124
C        -11.95170       -3.50572       -0.00156
N        -13.07892       -3.77563       -0.00182
C         -5.25902       -2.29021        0.00005
C         -4.23520       -1.29519        0.00013
C         -2.88395       -1.64804        0.00058
C         -1.87059       -0.68800        0.00067
C         -0.49363       -1.05450        0.00113
C          0.47946       -0.09532        0.00121
C          1.92979       -0.26052        0.00166
C          2.66371       -1.44232        0.00211
C          4.05785       -1.38321        0.00249
C          4.81975       -2.60052        0.00294
N          5.43317       -3.58414        0.00336
C          2.60699        0.97138        0.00160
C          3.99864        1.03598        0.00199
C          4.72210       -0.14609        0.00243
C          0.10839        1.29309        0.00083
S          1.51958        2.35364        0.00102
C         -1.19495        1.69026        0.00038
C         -2.22832        0.70555        0.00029
H         -3.84758        2.11470       -0.00045
H         -6.25994        1.52952       -0.00101
H         -7.51460       -4.72413       -0.00007
H         -9.94644       -5.24149       -0.00064
H        -10.90252       -1.02939       -0.00178
H         -4.98101       -3.34042        0.00035
H         -2.61387       -2.70166        0.00087
H         -0.23397       -2.11006        0.00141
H          2.16551       -2.40637        0.00216
H          4.51236        1.99147        0.00194
H          5.80634       -0.12240        0.00273
H         -1.46673        2.74176        0.00009
