44
syn_C_NPh_C_C.log	Energy: -662284.4695076
C          1.15123       -1.66201       -0.09093
C         -0.01935       -0.91817        0.03931
C         -1.30262       -1.54150        0.00639
C         -2.41215       -0.75813        0.14755
N         -3.76330       -1.09506        0.13579
C         -4.31465       -2.38959        0.01029
C         -3.82538       -3.44216        0.78636
C         -4.38053       -4.71039        0.65870
C         -5.43678       -4.93293       -0.22096
C         -5.93166       -3.87801       -0.98252
C         -5.36747       -2.61123       -0.87875
C         -2.33515        0.67652        0.29745
C         -3.69611        1.15722        0.36645
C         -4.50306        0.07544        0.26140
C         -1.11383        1.29217        0.33211
C          0.07771        0.51793        0.21170
C          1.33782        1.11130        0.24661
C          2.51662        0.36321        0.11818
C          3.79523        0.96097        0.15368
C          4.95203        0.21343        0.02497
C          6.25802        0.81258        0.05995
C          7.37896        0.05642       -0.06878
C          4.85560       -1.21788       -0.15092
C          6.07085       -1.97402       -0.28264
C          7.28342       -1.36320       -0.24334
C          3.60869       -1.81612       -0.18737
C          2.42002       -1.06549       -0.05698
H          1.08091       -2.73972       -0.22249
H         -1.37122       -2.61479       -0.13894
H         -3.02592       -3.25672        1.49628
H         -3.99459       -5.52510        1.26383
H         -5.87198       -5.92312       -0.31209
H         -6.75149       -4.04290       -1.67503
H         -5.72739       -1.79403       -1.49652
H         -4.01430        2.18196        0.49019
H         -5.58233        0.01333        0.29209
H         -1.03529        2.37053        0.44181
H          1.41028        2.18910        0.37651
H          3.86666        2.03863        0.28591
H          6.32737        1.88932        0.19239
H          8.35940        0.52242       -0.04041
H          5.99603       -3.05040       -0.41498
H          8.19333       -1.94730       -0.34419
H          3.53646       -2.89368       -0.31985
