60
syn_NPh_NPh_2-Cl_diOMe.log	Energy: -1225450.0913632
C          0.42863       -0.97778        0.09237
C          1.62602       -0.26239        0.05731
C          2.88912       -0.92844        0.05811
C          4.02420       -0.17369        0.02020
N          5.36291       -0.56429        0.02229
C          5.84113       -1.89299       -0.09936
C          5.35030       -2.71270       -1.11632
C          5.79663       -4.02539       -1.22292
C          6.74750       -4.51753       -0.33322
C          7.24501       -3.69172        0.67154
C          6.78734       -2.38521        0.79912
C          3.99156        1.26505       -0.00204
C          5.36459        1.70635       -0.00911
O          5.77695        3.01216       -0.02496
C          5.68567        3.63803        1.24492
C          6.14928        0.58752        0.00640
O          7.46925        0.39049       -0.01261
C          8.29173        1.52780       -0.23850
C          2.79390        1.92564       -0.00915
C          1.57746        1.18163        0.01772
C          0.33237        1.81160        0.00954
C         -0.86999        1.09629        0.04237
C         -2.12976        1.75750        0.02910
C         -3.28679        1.02261        0.06718
C         -4.68753        1.36884        0.06081
C         -5.36882        0.19912        0.10701
Cl        -7.07438       -0.01729        0.16378
C         -3.21409       -0.41294        0.12202
N         -4.52030       -0.90098        0.14320
C         -4.87597       -2.27365        0.21319
C         -4.47808       -3.02596        1.31768
C         -4.79616       -4.37819        1.38055
C         -5.52408       -4.97410        0.35378
C         -5.92426       -4.21688       -0.74403
C         -5.59160       -2.86890       -0.82385
C         -2.03033       -1.09526        0.12538
C         -0.81990       -0.34663        0.08789
H          0.46647       -2.06483        0.12388
H          2.92503       -2.01294        0.09007
H          4.62530       -2.31443       -1.81900
H          5.40823       -4.66033       -2.01346
H          7.10013       -5.54043       -0.42262
H          7.98571       -4.06940        1.36993
H          7.15946       -1.74084        1.58763
H          5.96022        4.68513        1.10007
H          6.37492        3.17321        1.96352
H          4.66730        3.57822        1.64732
H          7.99256        2.04991       -1.15088
H          9.30446        1.13712       -0.34009
H          8.24455        2.22153        0.60635
H          2.75712        3.01113       -0.04224
H          0.29433        2.89865       -0.02363
H         -2.15957        2.84297       -0.01463
H         -5.12353        2.35591        0.03593
H         -3.92431       -2.54377        2.11710
H         -4.48386       -4.96402        2.23955
H         -5.77818       -6.02817        0.40851
H         -6.48781       -4.67871       -1.54879
H         -5.87984       -2.27389       -1.68425
H         -1.99679       -2.18013        0.15358
