58
syn_NPh_NPh_2-Cl_benz.log	Energy: -1178159.6610825
C         -3.81291        0.30172        0.44988
C         -2.45872        0.11878        0.17301
C         -1.50254        1.15621        0.39990
C         -0.19171        0.91185        0.11278
N          0.91712        1.75133        0.23003
C          0.89209        3.07817        0.71962
C          0.36621        3.34480        1.98455
C          0.33377        4.65170        2.45858
C          0.84341        5.69216        1.68599
C          1.37668        5.42200        0.42851
C          1.39193        4.12063       -0.06191
C          0.25365       -0.34804       -0.42694
C          1.68931       -0.22632       -0.62780
C          2.66081       -1.10165       -1.10233
C          3.98423       -0.67717       -1.15559
C          2.05210        1.06993       -0.21498
C          3.37503        1.50084       -0.25247
C          4.33078        0.60930       -0.73042
C         -0.64091       -1.35181       -0.65197
C         -2.02379       -1.15303       -0.35568
C         -2.96634       -2.15692       -0.56927
C         -4.32655       -1.97652       -0.29025
C         -5.27385       -3.01388       -0.51015
C         -6.59847       -2.79831       -0.22786
C         -7.78376       -3.61457       -0.32558
C         -8.81097       -2.84664        0.11012
Cl       -10.47609       -3.26910        0.18624
C         -7.01415       -1.52120        0.28668
N         -8.39128       -1.57723        0.49050
C         -9.18654       -0.50833        0.98276
C         -9.26197        0.67761        0.25374
C        -10.01464        1.73947        0.74337
C        -10.70346        1.61228        1.94692
C        -10.62929        0.42344        2.66795
C         -9.86187       -0.63548        2.19489
C         -6.14087       -0.49663        0.52451
C         -4.76328       -0.70422        0.23515
H         -4.14415        1.25897        0.84688
H         -1.83315        2.11429        0.78860
H         -0.00795        2.52412        2.58848
H         -0.07917        4.85468        3.44204
H          0.82457        6.71019        2.06251
H          1.77023        6.22924       -0.18173
H          1.78231        3.90386       -1.05143
H          2.38781       -2.10318       -1.42254
H          4.75352       -1.34795       -1.52460
H          3.65387        2.49342        0.08493
H          5.36975        0.92305       -0.76986
H         -0.31999       -2.30672       -1.06063
H         -2.63501       -3.11421       -0.96673
H         -4.93430       -3.97052       -0.89807
H         -7.85826       -4.63057       -0.68223
H         -8.73148        0.75591       -0.69002
H        -10.07138        2.66381        0.17689
H        -11.29691        2.43976        2.32333
H        -11.16124        0.32205        3.60877
H         -9.77999       -1.55950        2.75782
H         -6.47434        0.45566        0.92524
