47
syn_O_NPh_2-F_tetClbenz.log	Energy: -1973093.1016072
C         -3.42106        1.27666       -0.21635
C         -2.11439        0.78844       -0.13717
C         -0.99149        1.66274       -0.06623
C          0.25377        1.11185        0.00941
N          1.48149        1.76781        0.08696
C          1.56261        3.19337        0.09782
C          1.49895        3.87573        1.30910
C          1.53972        5.26581        1.31429
C          1.63103        5.96519        0.11330
C          1.67479        5.27595       -1.09620
C          1.63474        3.88586       -1.10720
C          0.48294       -0.30451        0.02091
C          1.92689       -0.47208        0.11077
C          2.75209       -1.58997        0.16054
Cl         2.05600       -3.17724        0.11369
C          4.13776       -1.43597        0.24798
Cl         5.16586       -2.82735        0.31132
C          2.49496        0.82451        0.14867
C          3.87902        0.99316        0.23497
Cl         4.59407        2.57222        0.28069
C          4.69146       -0.14562        0.28451
Cl         6.40782        0.03946        0.39260
C         -0.58263       -1.16076       -0.04667
C         -1.90622       -0.63753       -0.12726
C         -3.01314       -1.48748       -0.19692
C         -4.32003       -1.00221       -0.27596
C         -5.43748       -1.88964       -0.34601
C         -6.69974       -1.37152       -0.42194
C         -8.04090       -1.91737       -0.50496
C         -8.83863       -0.83799       -0.55143
F        -10.14104       -0.74274       -0.63094
C         -6.86929        0.05027       -0.42936
O         -8.20957        0.35664       -0.51046
C         -5.85671        0.94755       -0.36583
C         -4.52688        0.42760       -0.28572
H         -3.58158        2.35228       -0.22395
H         -1.13583        2.73834       -0.07271
H          1.43025        3.31208        2.23405
H          1.50125        5.80279        2.25681
H          1.66482        7.05031        0.11977
H          1.74161        5.82080       -2.03258
H          1.67035        3.32993       -2.03867
H         -0.44601       -2.23527       -0.04029
H         -2.85055       -2.56302       -0.18911
H         -5.26595       -2.96200       -0.33777
H         -8.35086       -2.94989       -0.52616
H         -6.03698        2.01701       -0.37466
