40
syn_S_S_2-F_p-OMebenz.log	Energy: -1164246.8909962
C         -3.48035        1.35024        0.24420
C         -2.14812        0.93753        0.20363
C         -1.07304        1.84559        0.44662
C          0.21195        1.39578        0.39614
S          1.66402        2.36047        0.66569
C          0.52181        0.02127        0.10318
C          1.96312       -0.21753        0.10621
C          2.63501       -1.41022       -0.13162
C          4.02861       -1.44174       -0.08424
O          4.59562       -2.65158       -0.32970
C          6.00125       -2.74635       -0.29470
C          2.69261        0.94867        0.39281
C          4.07803        0.92187        0.44073
C          4.74870       -0.27550        0.20179
C         -0.49124       -0.86393       -0.13259
C         -1.85238       -0.44020       -0.09120
C         -2.90384       -1.32621       -0.32888
C         -4.23937       -0.91503       -0.28901
C         -5.30972       -1.82219       -0.53231
C         -6.61017       -1.39473       -0.48735
C         -7.82518       -2.15271       -0.70309
C         -8.91179       -1.37753       -0.57253
F        -10.17330       -1.75717       -0.70576
C         -6.88591       -0.01126       -0.18995
S         -8.61980        0.31338       -0.18473
C         -5.89340        0.89138        0.04927
C         -4.53362        0.46309        0.00635
H         -3.70555        2.39080        0.46694
H         -1.30028        2.88437        0.66850
H          2.10166       -2.32843       -0.35553
H          6.23749       -3.78805       -0.51468
H          6.39894       -2.48766        0.69527
H          6.46839       -2.10304       -1.05170
H          4.64574        1.82022        0.66176
H          5.83148       -0.28506        0.24183
H         -0.27504       -1.90569       -0.35554
H         -2.67820       -2.36677       -0.55163
H         -5.08081       -2.86103       -0.75478
H         -7.86314       -3.20802       -0.93946
H         -6.11390        1.93135        0.27227
