45
syn_S_NPh_2-CF3_2-CN.log	Energy: -1132874.7299177
C          0.42547       -0.94835        0.09003
C          1.65056       -0.27111        0.13673
C          2.88432       -0.97256        0.07076
C          4.04613       -0.24891        0.11731
N          5.36381       -0.68048        0.08465
C          5.79927       -2.02548       -0.05727
C          5.35934       -2.77738       -1.14631
C          5.77477       -4.09710       -1.28153
C          6.64280       -4.65769       -0.34787
C          7.08800       -3.89754        0.72973
C          6.65879       -2.58397        0.88654
C          4.05854        1.18425        0.24843
C          5.43833        1.58383        0.29340
C          6.18028        0.44517        0.19402
C          7.60058        0.34036        0.17276
N          8.75818        0.27662        0.16478
C          2.87466        1.87663        0.31336
C          1.64470        1.17051        0.25500
C          0.41681        1.84073        0.31511
C         -0.79968        1.16203        0.26619
C         -2.04388        1.85245        0.32735
C         -3.22331        1.15872        0.27779
C         -4.57707        1.66416        0.32434
C         -5.50022        0.68754        0.25128
C         -6.98310        0.88215        0.27281
F         -7.29512        2.18109        0.38138
F         -7.55867        0.41521       -0.84655
F         -7.55077        0.23711        1.30424
C         -3.20319       -0.27694        0.16361
S         -4.83438       -0.93468        0.11979
C         -2.03646       -0.97923        0.10180
C         -0.79431       -0.27711        0.15111
H          0.42792       -2.03247        0.00323
H          2.88902       -2.05483       -0.00928
H          4.70424       -2.32135       -1.88194
H          5.43113       -4.68310       -2.12820
H          6.97373       -5.68515       -0.46170
H          7.76505       -4.32919        1.45988
H          6.98639       -1.99257        1.73540
H          5.83201        2.58558        0.38134
H          2.86561        2.95838        0.41390
H          0.41380        2.92493        0.40331
H         -2.04501        2.93590        0.41372
H         -4.82479        2.71501        0.40884
H         -2.02884       -2.06191        0.01587
