45
syn_C_O_3-CF3_p-CF3benz.log	Energy: -1049075.2778914
C         -3.34314        0.96460        1.07979
C         -2.04036        0.56047        0.82186
C         -0.92381        1.17478        1.48162
C          0.31308        0.72205        1.17410
O          1.48873        1.19262        1.70744
C          0.56606       -0.33069        0.23172
C          2.01370       -0.47850        0.22046
C          2.90915       -1.30143       -0.45073
C          4.26793       -1.15000       -0.18844
C          5.27268       -1.98034       -0.93769
F          4.73617       -3.12167       -1.40130
F          5.76914       -1.31986       -2.00007
F          6.32073       -2.31207       -0.16361
C          2.49405        0.46949        1.13150
C          3.84107        0.63521        1.40562
C          4.72601       -0.19400        0.72658
C         -0.47181       -0.93262       -0.41060
C         -1.81112       -0.50476       -0.13497
C         -2.89791       -1.09309       -0.76939
C         -4.21766       -0.68595       -0.51066
C         -5.31744       -1.28605       -1.15733
C         -6.61939       -0.88537       -0.90191
C         -7.78066       -1.46965       -1.53900
C         -7.60689       -2.57824       -2.54281
F         -6.99411       -3.65028       -2.00349
F         -8.77739       -3.00599       -3.03956
F         -6.85387       -2.19053       -3.59080
C         -9.03389       -1.03127       -1.24440
C         -6.84550        0.17573        0.05313
C         -8.19021        0.59790        0.32493
C         -9.24614        0.01798       -0.29875
C         -5.76996        0.77020        0.69176
C         -4.44421        0.36997        0.43892
H         -3.51995        1.76284        1.79682
H         -1.07771        1.97288        2.19962
H          2.56266       -2.04700       -1.15782
H          4.18321        1.37522        2.11947
H          5.79074       -0.10451        0.91308
H         -0.30773       -1.73122       -1.12860
H         -2.72546       -1.89174       -1.48718
H         -5.11427       -2.07838       -1.86812
H         -9.88994       -1.48204       -1.73246
H         -8.34213        1.39681        1.04578
H        -10.26015        0.34184       -0.08860
H         -5.95231        1.56781        1.40834
