45
syn_C_NPh_3-CN_2-F.log	Energy: -782399.6415791
C          1.24049       -1.80273       -0.16087
C          0.11061       -1.00692       -0.00097
C         -1.20311       -1.56692       -0.04086
C         -2.26695       -0.73371        0.12820
N         -3.63343       -1.01718        0.11701
C         -4.23888       -2.29514        0.00517
C         -3.83608       -3.32490        0.85526
C         -4.41541       -4.58307        0.73383
C         -5.40906       -4.80938       -0.21487
C         -5.81707       -3.77328       -1.05055
C         -5.22728       -2.51798       -0.95224
C         -2.12560        0.69232        0.32715
C         -3.45818        1.24024        0.43493
C         -4.29085        0.18586        0.30299
F         -5.60947        0.16379        0.33943
C         -0.87654        1.24605        0.36595
C          0.27583        0.41798        0.20896
C          1.56153        0.95063        0.24736
C          2.70222        0.15007        0.08764
C          4.00521        0.69161        0.12666
C          5.12154       -0.10709       -0.03285
C          6.47156        0.41528        0.00140
C          6.67239        1.82050        0.20919
N          6.81904        2.95860        0.37796
C          7.55365       -0.40395       -0.16020
C          4.96038       -1.52587       -0.24411
C          6.13012       -2.34076       -0.40794
C          7.37867       -1.80406       -0.36807
C          3.68661       -2.06625       -0.28386
C          2.53674       -1.26622       -0.12305
H          1.11799       -2.87180       -0.32014
H         -1.33023       -2.63161       -0.20903
H         -3.07912       -3.13183        1.60874
H         -4.09793       -5.38457        1.39361
H         -5.86518       -5.79051       -0.30198
H         -6.59042       -3.94396       -1.79294
H         -5.52608       -1.71216       -1.61399
H         -3.74549        2.26811        0.59041
H         -0.74366        2.31450        0.51004
H          1.68780        2.01926        0.40494
H          4.12443        1.76037        0.28574
H          8.55401        0.01502       -0.12996
H          5.99418       -3.40736       -0.56632
H          8.25432       -2.43217       -0.49351
H          3.56609       -3.13547       -0.44333
