37
syn_C_O_C_3-OMe.log	Energy: -601640.9711581
C         -2.43701        1.29031        0.23256
C         -3.61103        0.56944        0.42454
C         -4.88374        1.22341        0.48377
C         -5.98101        0.44845        0.67418
O         -7.27121        0.88033        0.75854
C         -5.92363       -0.97329        0.81639
C         -7.30355       -1.37401        0.99659
O         -7.66164       -2.66002        1.16670
C         -9.04849       -2.87090        1.32987
C         -8.04639       -0.24568        0.95356
C         -4.73020       -1.63045        0.76511
C         -3.53383       -0.87298        0.56663
C         -2.28936       -1.49282        0.50659
C         -1.10434       -0.76658        0.31294
C          0.15879       -1.39241        0.25180
C          1.32143       -0.66645        0.06077
C          2.61258       -1.29390       -0.00292
C          3.73916       -0.55864       -0.19121
C          1.24546        0.76928       -0.08031
C          2.46530        1.50270       -0.27766
C          3.66396        0.86563       -0.33110
C          0.01185        1.39455       -0.02224
C         -1.18069        0.66607        0.17205
H         -2.49158        2.37141        0.12588
H         -4.95679        2.30062        0.37914
H         -9.18873       -3.94435        1.45714
H         -9.60238       -2.52855        0.44544
H         -9.42220       -2.34201        2.21689
H         -9.10558       -0.06291        1.04081
H         -4.67584       -2.70946        0.87186
H         -2.23233       -2.57393        0.61308
H          0.21446       -2.47375        0.35825
H          2.66629       -2.37434        0.10354
H          4.70871       -1.04543       -0.23744
H          2.40578        2.58288       -0.38348
H          4.57802        1.43243       -0.48079
H         -0.04507        2.47580       -0.12853
