43
syn_C_O_m-CNbenz_2-CF3.log	Energy: -895488.0378237
C          1.08697       -1.85136        1.01489
C          0.11447       -1.02780        0.44583
C         -1.27770       -1.28669        0.63517
C         -2.15355       -0.43398        0.04617
O         -3.51835       -0.51265        0.11058
C         -1.76909        0.69446       -0.74338
C         -3.01573        1.30290       -1.15871
C         -3.98372        0.54088       -0.62042
C         -5.47093        0.66557       -0.69540
F         -6.02566       -0.41895       -1.25130
F         -6.01112        0.81528        0.52065
F         -5.80064        1.73172       -1.43531
C         -0.44255        0.96307       -0.93963
C          0.53429        0.10745       -0.34892
C          1.89998        0.34392       -0.52216
C          2.87023       -0.48312        0.04960
C          4.25800       -0.24298       -0.12568
C          5.22022       -1.05173        0.43381
C          6.66058       -0.81625        0.26168
C          7.16878        0.25781       -0.49034
C          8.52504        0.46053       -0.63945
C          7.58128       -1.69930        0.87273
C          8.95804       -1.48915        0.71836
C          9.43282       -0.42101       -0.02961
C         10.84648       -0.21741       -0.17958
N         11.98712       -0.05086       -0.30214
C          4.79305       -2.18395        1.22651
C          5.78946       -3.04632        1.82303
C          7.10480       -2.81947        1.65730
C          3.45234       -2.43398        1.40838
C          2.45204       -1.60879        0.83780
H          0.77425       -2.70449        1.61226
H         -1.61100       -2.13197        1.22715
H         -3.15659        2.18126       -1.76998
H         -0.11879        1.81233       -1.53411
H          2.21544        1.19670       -1.11922
H          4.53496        0.61668       -0.72744
H          6.49347        0.95491       -0.97259
H          8.89569        1.29550       -1.22401
H          9.65925       -2.17093        1.19006
H          5.44420       -3.89006        2.41413
H          7.84222       -3.47548        2.11112
H          3.14606       -3.28887        2.00693
