55
syn_O_NPh_m-CNbenz_p-CNbenz.log	Energy: -969401.0829286
C         -3.59366       -1.78359        0.63157
C         -4.62182       -0.96833        0.14947
C         -5.99289       -1.32495        0.31643
C         -6.94777       -0.48297       -0.17453
N         -8.33820       -0.60841       -0.14965
C         -9.05415       -1.68200        0.44044
C         -8.89734       -1.95488        1.79896
C         -9.59288       -3.01375        2.37257
C        -10.45707       -3.78555        1.59995
C        -10.61721       -3.50345        0.24590
C         -9.90891       -2.45947       -0.34003
C         -6.61792        0.73644       -0.86273
C         -7.88222        1.34129       -1.25116
C         -8.20593        2.50993       -1.92154
C         -9.55569        2.81493       -2.12615
C         -9.91679        4.01762       -2.81962
N        -10.20820        4.98991       -3.38068
C         -8.90399        0.48218       -0.79321
C        -10.25185        0.78332       -0.98326
C        -10.56395        1.95508       -1.65459
C         -5.31346        1.09680       -1.03394
C         -4.27695        0.25661       -0.52982
C         -2.93019        0.59153       -0.68280
C         -1.90388       -0.22274       -0.19966
C         -0.53252        0.13710       -0.36565
C          0.43773       -0.68917        0.12227
C          1.89112       -0.66980        0.14931
C          2.87290        0.20195       -0.31309
C          4.20658       -0.11932       -0.09820
C          2.26570       -1.84402        0.81657
C          3.58140       -2.19325        1.04669
C          4.55400       -1.30345        0.57405
C          5.94224       -1.60967        0.78224
N          7.06306       -1.85388        0.94880
C          0.07255       -1.90066        0.79101
O          1.18769       -2.58766        1.20471
C         -1.20948       -2.29830        0.98028
C         -2.24713       -1.45033        0.47888
H         -3.85177       -2.70819        1.14247
H         -6.25215       -2.25021        0.82102
H         -8.23630       -1.33334        2.39492
H         -9.46829       -3.22756        3.42953
H        -11.00469       -4.60617        2.05261
H        -11.28550       -4.10577       -0.36151
H        -10.00745       -2.24518       -1.39983
H         -7.43485        3.18306       -2.28195
H        -11.03278        0.12732       -0.61514
H        -11.60258        2.22055       -1.82043
H         -5.04733        2.01384       -1.55297
H         -2.67237        1.51583       -1.19524
H         -0.28323        1.06250       -0.87751
H          2.60541        1.11644       -0.83228
H          4.99312        0.54036       -0.44698
H          3.84869       -3.10620        1.56495
H         -1.44942       -3.22390        1.49202
