36
syn_C_C_2-Cl_diF.log	Energy: -944082.5827997
C         -2.27680        0.58831        1.62860
C         -3.53948        0.27857        1.11473
C         -4.73099        0.68741        1.75796
C         -5.97657        0.37955        1.24802
C         -7.19375        0.79054        1.89496
C         -8.40466        0.47366        1.37124
C         -6.06136       -0.38287        0.02062
C         -7.36752       -0.68777       -0.48504
F         -7.46017       -1.39217       -1.61922
C         -8.48555       -0.27786        0.16137
F         -9.69582       -0.57202       -0.32590
C         -4.91446       -0.79357       -0.62652
C         -3.63471       -0.48245       -0.11064
C         -2.46097       -0.88988       -0.75142
C         -1.19846       -0.58058       -0.23776
C         -0.00593       -0.98981       -0.88013
C          1.23711       -0.68003       -0.36499
C          2.44998       -1.09554       -1.01596
C          3.65139       -0.77254       -0.47941
Cl         5.13079       -1.27389       -1.26288
C          1.33146        0.08177        0.86128
C          2.63912        0.38988        1.37471
C          3.76286       -0.01791        0.73502
C          0.17837        0.48899        1.50062
C         -1.10395        0.18058        0.98778
H         -2.20562        1.16100        2.55055
H         -4.65895        1.26001        2.67977
H         -7.12631        1.36228        2.81542
H         -9.33324        0.77423        1.84405
H         -4.99070       -1.36463       -1.54613
H         -2.53268       -1.46234       -1.67325
H         -0.07738       -1.56232       -1.80191
H          2.38847       -1.66753       -1.93614
H          2.71318        0.96199        2.29536
H          4.74817        0.21487        1.12312
H          0.25022        1.06170        2.42252
