39
syn_S_S_3-CN_diOMe.log	Energy: -1135307.4191128
C          0.31816        1.53791       -0.39292
C         -0.83147        0.79491       -0.12278
C         -2.12821        1.27217       -0.48312
C         -3.22317        0.51353       -0.19672
S         -4.90451        0.90415       -0.54549
C         -3.10623       -0.76197        0.45675
C         -4.39889       -1.38620        0.63520
O         -4.52918       -2.61545        1.21760
C         -4.81604       -3.65115        0.28372
C         -5.42108       -0.63356        0.16363
O         -6.73773       -0.90125        0.14788
C         -7.30000       -1.26267        1.41120
C         -1.87706       -1.24371        0.81253
C         -0.70500       -0.48304        0.53487
C          0.56652       -0.94121        0.88266
C          1.71951       -0.19837        0.61189
C          3.01181       -0.67341        0.96915
C          4.11955        0.08016        0.68845
C          5.51964       -0.21008        0.96150
C          5.95300       -1.40719        1.60484
N          6.27135       -2.39103        2.12997
C          6.35773        0.76940        0.54241
C          3.98135        1.34964        0.03453
S          5.55204        2.11133       -0.20811
C          2.76115        1.84310       -0.32543
C          1.59162        1.07840       -0.04507
H          0.22115        2.50134       -0.88835
H         -2.21928        2.23463       -0.97858
H         -4.83939       -4.58210        0.85284
H         -4.03634       -3.70819       -0.48483
H         -5.78749       -3.48885       -0.19824
H         -8.37038       -1.37595        1.23806
H         -7.12202       -0.46846        2.14387
H         -6.87368       -2.19920        1.78022
H         -1.79366       -2.20471        1.31188
H          0.66397       -1.90374        1.37931
H          3.11220       -1.63556        1.46469
H          7.43557        0.77399        0.63739
H          2.66087        2.80471       -0.82032
