40
syn_S_O_p-OMebenz_3-F.log	Energy: -961569.7947066
C         -3.59113        1.12220       -0.00222
C         -4.60927        0.16225       -0.00299
C         -5.98422        0.54390       -0.00417
C         -6.91163       -0.44987       -0.00485
O         -8.26890       -0.28702       -0.00599
C         -6.57569       -1.83651       -0.00445
C         -7.85839       -2.49422       -0.00545
F         -8.04165       -3.81179       -0.00548
C         -8.81288       -1.54689       -0.00632
C         -5.26694       -2.23376       -0.00333
C         -4.24901       -1.23751       -0.00258
C         -2.89312       -1.58512       -0.00142
C         -1.88336       -0.62479       -0.00066
C         -0.50330       -0.98713        0.00052
C          0.46841       -0.02829        0.00126
C          1.91978       -0.19659        0.00250
C          2.64512       -1.38147        0.00318
C          4.03935       -1.34040        0.00437
O          4.66074       -2.54850        0.00507
C          6.06973       -2.57142        0.00496
C          2.59594        1.03506        0.00299
C          3.98163        1.08052        0.00418
C          4.70625       -0.10933        0.00489
C          0.09591        1.36254        0.00085
S          1.50368        2.42567        0.00196
C         -1.20815        1.75549       -0.00028
C         -2.24249        0.76970       -0.00107
H         -3.86196        2.17552       -0.00253
H         -6.27048        1.59016       -0.00449
H         -9.88956       -1.60387       -0.00720
H         -4.99591       -3.28503       -0.00301
H         -2.62092       -2.63831       -0.00111
H         -0.24023       -2.04191        0.00081
H          2.15369       -2.34906        0.00279
H          6.35295       -3.62458        0.00466
H          6.48167       -2.08756        0.90015
H          6.48152       -2.08704       -0.89000
H          4.50845        2.02957        0.00458
H          5.78874       -0.06184        0.00588
H         -1.48198        2.80667       -0.00059
