40
syn_S_O_2-CN_p-CF3benz.log	Energy: -1096782.7383021
C         -3.34099        1.30362        0.25530
C         -2.05146        0.77797        0.19545
C         -0.90565        1.58490        0.48773
C          0.31228        0.99713        0.40649
O          1.51184        1.61746        0.65236
C          0.51124       -0.37538        0.04647
C          1.95324       -0.56444        0.08592
C          2.80833       -1.63442       -0.14762
C          4.17662       -1.42847        0.00010
C          5.14099       -2.54287       -0.29839
F          4.55464       -3.74941       -0.22435
F          5.65855       -2.43190       -1.53556
F          6.17827       -2.54453        0.55675
C          2.48285        0.67633        0.45817
C          3.84081        0.90089        0.61045
C          4.68447       -0.17746        0.37348
C         -0.56173       -1.16624       -0.23669
C         -1.87739       -0.60991       -0.16952
C         -3.00282       -1.38220       -0.45037
C         -4.29783       -0.85461       -0.38992
C         -5.43914       -1.64884       -0.67716
C         -6.69698       -1.10274       -0.60924
C         -7.96804       -1.73421       -0.86018
C         -9.01379       -0.88903       -0.69771
C        -10.38640       -1.21923       -0.87356
N        -11.50633       -1.48497       -1.01598
C         -6.85578        0.27957       -0.24566
S         -8.54955        0.74591       -0.22683
C         -5.78395        1.07700        0.03801
C         -4.47126        0.52866       -0.02672
H         -3.47298        2.34749        0.52954
H         -1.01862        2.62765        0.76340
H          2.42376       -2.60717       -0.43324
H          4.22141        1.87206        0.90401
H          5.75595       -0.05119        0.48558
H         -0.43909       -2.20989       -0.51223
H         -2.87188       -2.42647       -0.72480
H         -5.30635       -2.69218       -0.95081
H         -8.08274       -2.77231       -1.14794
H         -5.90963        2.12027        0.31218
