33
syn_C_S_3-F_C.log	Energy: -794732.2675464
C          1.04952       -1.65420       -0.34257
C         -0.08619       -0.87123       -0.16493
C         -1.39997       -1.41672       -0.30425
C         -2.48235       -0.61052       -0.12059
S         -4.17859       -1.06442       -0.24106
C         -2.34737        0.78709        0.21267
C         -3.64284        1.42122        0.35387
C         -4.66756        0.57458        0.14467
C         -1.09964        1.33083        0.35095
C          0.06558        0.52814        0.16861
C          1.34560        1.05692        0.30343
C          2.49399        0.27068        0.12505
C          3.79278        0.80475        0.26132
C          4.91035        0.01238        0.08137
C          6.24394        0.52330        0.21243
F          6.36569        1.82472        0.52241
C          7.34774       -0.23976        0.03944
C          4.77057       -1.38588       -0.25156
C          5.95712       -2.17682       -0.43057
C          7.19023       -1.62429       -0.29030
C          3.49846       -1.91369       -0.38622
C          2.34251       -1.12442       -0.20731
H          0.93531       -2.70643       -0.59338
H         -1.51076       -2.46784       -0.55487
H         -3.76820        2.46862        0.60202
H         -5.72373        0.80633        0.19170
H         -0.98127        2.38187        0.60154
H          1.46175        2.10896        0.55408
H          3.91230        1.85410        0.51129
H          8.33138        0.20180        0.15153
H          5.84562       -3.22781       -0.68085
H          8.08022       -2.23027       -0.42752
H          3.38211       -2.96566       -0.63684
