33
syn_S_O_3-CF3_diCl.log	Energy: -1519311.9773407
C          0.18543        1.57823       -0.13896
C         -0.86481        0.69961        0.13082
C         -2.22560        1.09251       -0.06354
C         -3.18236        0.17625        0.22375
O         -4.53829        0.36282        0.10313
C         -2.90761       -1.14004        0.70261
C         -4.21161       -1.74357        0.86497
Cl        -4.53378       -3.33367        1.41735
C         -5.11104       -0.80678        0.49602
Cl        -6.80772       -0.86252        0.44832
C         -1.61858       -1.54469        0.89804
C         -0.56095       -0.62900        0.61512
C          0.77519       -0.99114        0.79757
C          1.82573       -0.11051        0.52712
C          3.18269       -0.49250        0.71766
C          4.19178        0.39299        0.44401
C          5.62912        0.22165        0.56319
C          6.26105       -1.04526        1.03755
F          5.85006       -1.36448        2.27868
F          5.93339       -2.08358        0.24657
F          7.59886       -0.96072        1.06248
C          6.32753        1.31600        0.20332
C          3.87436        1.70987       -0.03633
S          5.33642        2.65203       -0.31131
C          2.58696        2.11667       -0.23290
C          1.52134        1.21233        0.04501
H         -0.04303        2.57716       -0.50298
H         -2.47338        2.08417       -0.42589
H         -1.38973       -2.54184        1.26158
H          1.00549       -1.98964        1.16155
H          3.40521       -1.49066        1.08130
H          7.40407        1.42064        0.20988
H          2.35619        3.11385       -0.59619
