56
syn_NPh_NPh_C_2-OMe.log	Energy: -865226.3182483
C          0.54821       -0.97728        0.11576
C          1.75264       -0.27414        0.14301
C          3.00986       -0.94745        0.07046
C          4.14962       -0.20051        0.09623
N          5.48569       -0.60528        0.05691
C          5.95282       -1.92999       -0.13035
C          5.46676       -2.68744       -1.19649
C          5.90293       -3.99640       -1.37030
C          6.83847       -4.54588       -0.49800
C          7.33073       -3.78178        0.55690
C          6.88324       -2.47991        0.75096
C          4.14077        1.23753        0.21302
C          5.51893        1.66621        0.23685
C          6.27279        0.53639        0.14177
O          7.59431        0.34719        0.10446
C          8.37172        1.52977        0.15029
C          2.94506        1.89825        0.28651
C          1.72063        1.16645        0.24859
C          0.48266        1.80643        0.31510
C         -0.72743        1.10370        0.28546
C         -1.98069        1.77395        0.34171
C         -3.14558        1.05142        0.31374
C         -4.54432        1.41313        0.32859
C         -5.25228        0.26083        0.26108
C         -3.09263       -0.38594        0.23642
N         -4.40905       -0.84349        0.21199
C         -4.84136       -2.18538        0.14323
C         -4.27603       -3.15331        0.97630
C         -4.71577       -4.47018        0.90358
C         -5.73285       -4.82750        0.02212
C         -6.30459       -3.85764       -0.79659
C         -5.85525       -2.54258       -0.74751
C         -1.91188       -1.07277        0.15807
C         -0.69398       -0.33631        0.18529
H          0.57485       -2.06249        0.03833
H          3.03683       -2.03062        0.00218
H          4.75374       -2.24381       -1.88409
H          5.51840       -4.58325       -2.19896
H          7.18302       -5.56564       -0.63969
H          8.05895       -4.20466        1.24237
H          7.25073       -1.88389        1.57880
H          5.87912        2.68043        0.31481
H          8.13803        2.17881       -0.70148
H          9.41247        1.21076        0.10028
H          8.19256        2.07530        1.08416
H          2.91076        2.98067        0.37903
H          0.45583        2.89168        0.39238
H         -1.99986        2.85939        0.39751
H         -4.95373        2.41075        0.39326
H         -6.32238        0.10499        0.27263
H         -3.50911       -2.86474        1.68752
H         -4.27057       -5.21760        1.55341
H         -6.07790       -5.85557       -0.02598
H         -7.09465       -4.12690       -1.49112
H         -6.27438       -1.79089       -1.40958
H         -1.88112       -2.15384        0.06554
