39
syn_O_O_2-Cl_p-CF3benz.log	Energy: -1124637.4568304
C         -3.42409        1.21526        0.19739
C         -2.12444        0.71143        0.15450
C         -0.99133        1.55358        0.39088
C          0.23661        0.98404        0.33059
O          1.42862        1.63858        0.53035
C          0.45675       -0.40157        0.04536
C          1.90222       -0.56352        0.08153
C          2.77435       -1.62961       -0.10019
C          4.14037       -1.39271        0.02284
C          5.12088       -2.50553       -0.22196
F          4.55716       -3.71614       -0.07255
F          5.62497       -2.45820       -1.46914
F          6.16721       -2.44107        0.62025
C          2.41329        0.70528        0.37932
C          3.76868        0.96053        0.50577
C          4.62952       -0.11454        0.32118
C         -0.60518       -1.22541       -0.18369
C         -1.92930       -0.68959       -0.13495
C         -3.04499       -1.49539       -0.36242
C         -4.34940       -0.99299       -0.32004
C         -5.47492       -1.83671       -0.55623
C         -6.73281       -1.30082       -0.50467
C         -8.07831       -1.80674       -0.67997
C         -8.88077       -0.74234       -0.49263
Cl       -10.58221       -0.61564       -0.55034
C         -6.89101        0.08967       -0.21576
O         -8.22415        0.41602       -0.21260
C         -5.86497        0.94592        0.01825
C         -4.54295        0.40838       -0.03057
H         -3.57300        2.27020        0.41521
H         -1.12119        2.60792        0.60961
H          2.40430       -2.62314       -0.32761
H          4.13459        1.95299        0.74123
H          5.69953        0.03616        0.41590
H         -0.46596       -2.28053       -0.40235
H         -2.89586       -2.55065       -0.58027
H         -5.31670       -2.88909       -0.77297
H         -8.39069       -2.81344       -0.91061
H         -6.03250        1.99549        0.23393
