38
syn_O_O_3-F_diOMe.log	Energy: -734344.2126850
C         -0.05372        1.32167        0.89965
C         -1.13577        0.46546        0.70020
C         -2.46932        0.86531        1.03460
C         -3.46162       -0.02948        0.81490
O         -4.79593        0.17045        1.07191
C         -3.25708       -1.33619        0.27214
C         -4.58066       -1.91528        0.19506
O         -4.91130       -3.13760       -0.29641
C         -4.72459       -4.18689        0.64287
C         -5.42963       -0.98651        0.69742
O         -6.73667       -1.06242        0.90534
C         -7.48181        0.13644        0.69106
C         -1.99701       -1.74021       -0.06667
C         -0.90061       -0.84789        0.14353
C          0.40649       -1.21317       -0.17894
C          1.49473       -0.35620        0.01904
C          2.82050       -0.75413       -0.31847
C          3.84608        0.12462       -0.10292
C          5.27446        0.11750       -0.29712
F          5.97274       -0.89841       -0.79828
C          5.75770        1.30330        0.11373
C          3.59109        1.41514        0.44945
O          4.75671        2.11993        0.57608
C          2.34901        1.84900        0.79011
C          1.25708        0.95498        0.57741
H         -0.23406        2.30875        1.31934
H         -2.66611        1.84901        1.44753
H         -4.97173       -5.11546        0.12516
H         -5.38770       -4.05974        1.50717
H         -3.68481       -4.22784        0.99153
H         -8.52600       -0.13894        0.83527
H         -7.33127        0.50614       -0.32848
H         -7.19582        0.90822        1.41010
H         -1.81798       -2.72062       -0.49810
H          0.58716       -2.19994       -0.59952
H          2.99974       -1.73910       -0.73837
H          6.75687        1.70745        0.14185
H          2.18529        2.83639        1.20846
