47
syn_S_S_p-CNbenz_m-OMebenz.log	Energy: -1256248.0018474
C         -3.53093        1.23852        0.00071
C         -4.58397        0.32233       -0.00041
C         -5.94706        0.74739       -0.00022
C         -6.94084       -0.18393       -0.00133
S         -8.67404        0.14800       -0.00130
C         -6.66171       -1.59606       -0.00271
C         -7.88988       -2.38276       -0.00370
C         -8.04575       -3.76555       -0.00512
C         -9.31299       -4.33628       -0.00590
C         -9.04337       -1.57812       -0.00308
C        -10.31573       -2.12304       -0.00383
C        -10.44850       -3.51445       -0.00525
O        -11.72274       -3.97344       -0.00594
C        -11.93197       -5.36866       -0.00701
C         -5.36392       -2.02334       -0.00292
C         -4.28864       -1.08651       -0.00179
C         -2.95535       -1.49915       -0.00199
C         -1.90076       -0.58272       -0.00088
C         -0.54095       -1.00729       -0.00109
C          0.47341       -0.09103        0.00002
C          1.91524       -0.31908        0.00002
C          2.59771       -1.53140       -0.00113
C          3.99323       -1.53301       -0.00092
C          4.70165       -2.78218       -0.00212
N          5.27250       -3.79119       -0.00310
C          2.64579        0.88231        0.00138
C          4.03901        0.88608        0.00160
C          4.71077       -0.32604        0.00045
C          0.16323        1.31153        0.00142
S          1.62014        2.31030        0.00271
C         -1.12171        1.76442        0.00167
C         -2.19670        0.82556        0.00052
H         -3.75544        2.30269        0.00175
H         -6.16834        1.81081        0.00082
H         -7.17276       -4.41206       -0.00563
H         -9.40673       -5.41539       -0.00703
H        -11.21013       -1.50984       -0.00335
H        -13.01328       -5.50875       -0.00712
H        -11.50624       -5.83978        0.88793
H        -11.50624       -5.83841       -0.90268
H         -5.13035       -3.08504       -0.00394
H         -2.73085       -2.56351       -0.00303
H         -0.32682       -2.07309       -0.00215
H          2.05796       -2.47282       -0.00220
H          4.59359        1.81848        0.00266
H          5.79503       -0.34952        0.00059
H         -1.34791        2.82674        0.00272
