36
syn_O_O_diCl_diCF3.log	Energy: -1528071.6242873
C         -0.20819        1.31110        0.24252
C         -1.32459        0.47213        0.29555
C         -2.64858        1.00295        0.31407
C         -3.67047        0.11117        0.36849
O         -5.00469        0.42249        0.40015
C         -3.50357       -1.30335        0.40667
C         -4.85501       -1.83165        0.45349
C         -5.23681       -3.27472        0.53944
F         -4.26540       -4.04585        0.01898
F         -5.41810       -3.66836        1.80777
F         -6.36306       -3.53981       -0.13416
C         -5.67141       -0.75538        0.46504
C         -7.17187       -0.62679        0.48431
F         -7.52963        0.53658        1.03188
F         -7.67623       -0.67383       -0.75402
F         -7.72226       -1.61412        1.19569
C         -2.24345       -1.83818        0.38569
C         -1.12417       -0.95830        0.33346
C          0.18205       -1.45703        0.31544
C          1.29737       -0.62001        0.26306
C          2.62108       -1.15455        0.24657
C          3.67677       -0.29104        0.19506
C          5.11621       -0.42582        0.16393
Cl         5.99973       -1.89411        0.18633
C          5.61294        0.82857        0.11425
Cl         7.21770        1.38010        0.05819
C          3.45086        1.11821        0.15847
O          4.64854        1.78841        0.10912
C          2.22155        1.68902        0.17148
C          1.09424        0.81129        0.22533
H         -0.36003        2.38731        0.21419
H         -2.82325        2.07278        0.28725
H         -2.08306       -2.91001        0.40947
H          0.33313       -2.53351        0.34338
H          2.77255       -2.22928        0.27492
H          2.08986        2.76502        0.14258
