44
syn_C_NPh_2-F_diF.log	Energy: -849035.7397935
C         -3.33279        0.05249        1.36510
C         -4.40524       -0.24427        0.52888
C         -5.75420       -0.09782        0.97526
C         -6.76361       -0.40971        0.11424
N         -8.14639       -0.33916        0.28913
C         -8.84231       -0.02251        1.48272
C         -8.50177       -0.66662        2.67238
C         -9.17225       -0.34214        3.84636
C        -10.19592        0.60149        3.83254
C        -10.54202        1.22882        2.63883
C         -9.86094        0.92949        1.46428
C         -6.50840       -0.86201       -1.23373
C         -7.79916       -1.05375       -1.83323
F         -8.02586       -1.47006       -3.08013
C         -8.72952       -0.73770       -0.90650
F        -10.04394       -0.77338       -0.99832
C         -5.22804       -1.00697       -1.68768
C         -4.13760       -0.70846       -0.81810
C         -2.81628       -0.84734       -1.23644
C         -1.73453       -0.55037       -0.39489
C         -0.39408       -0.69041       -0.81593
C          0.66601       -0.39398        0.02184
C          2.03246       -0.53389       -0.39896
C          3.02836       -0.22891        0.46399
F          4.31154       -0.35333        0.08896
C          0.39694        0.07173        1.36414
C          1.50947        0.37572        2.22239
C          2.78897        0.23250        1.79328
C         -0.91194        0.21300        1.78855
C         -2.00200       -0.08630        0.94387
H         -3.53043        0.40278        2.37590
H         -5.95240        0.26180        1.97983
H         -7.72149       -1.42100        2.66847
H         -8.90250       -0.84135        4.77186
H        -10.72338        0.84625        4.74907
H        -11.33844        1.96624        2.62137
H        -10.11177        1.43105        0.53587
H         -5.03151       -1.34115       -2.70174
H         -2.61671       -1.19613       -2.24723
H         -0.19576       -1.04071       -1.82628
H          2.26363       -0.88116       -1.40046
H          1.30556        0.72567        3.23058
H          3.63910        0.45746        2.42783
H         -1.11121        0.56369        2.79896
