31
syn_S_O_2-CN_diCl.log	Energy: -1365728.4130101
C          1.06516       -1.28325        0.00266
C          2.23456       -0.52158        0.00101
C          3.52133       -1.14437        0.00063
C          4.60428       -0.32899       -0.00101
O          5.91621       -0.73412       -0.00161
C          4.52950        1.09665       -0.00235
C          5.90918        1.52949       -0.00385
Cl         6.46527        3.15052       -0.00591
C          6.65845        0.40638       -0.00331
Cl         8.34364        0.20208       -0.00441
C          3.31576        1.72088       -0.00203
C          2.13302        0.92167       -0.00033
C          0.86630        1.50768        0.00007
C         -0.30433        0.74362        0.00171
C         -1.58935        1.35044        0.00210
C         -2.72077        0.57422        0.00371
C         -4.10029        0.99294        0.00433
C         -4.96406       -0.04990        0.00600
C         -6.38372        0.04517        0.00697
N         -7.54112        0.11945        0.00776
C         -2.60376       -0.86004        0.00502
S         -4.18274       -1.63127        0.00694
C         -1.38906       -1.48245        0.00472
C         -0.20187       -0.69419        0.00305
H          1.14264       -2.36782        0.00367
H          3.61822       -2.22443        0.00162
H          3.23892        2.80387       -0.00304
H          0.78785        2.59233       -0.00093
H         -1.66550        2.43448        0.00109
H         -4.41935        2.02820        0.00356
H         -1.30597       -2.56526        0.00571
