33
syn_C_O_3-Cl_diCl.log	Energy: -1394970.2542216
C         -2.40576        0.91133        1.40924
C         -3.66443        0.49577        0.99119
C         -4.85594        1.06295        1.55035
C         -6.03995        0.60038        1.08593
O         -7.28457        1.01705        1.49527
C         -6.16537       -0.40975        0.08132
C         -7.59278       -0.57346       -0.08700
Cl        -8.37072       -1.65498       -1.16518
C         -8.17721        0.29049        0.76959
Cl        -9.81839        0.60335        1.07415
C         -5.05328       -0.97072       -0.47202
C         -3.76612       -0.53069       -0.02960
C         -2.60006       -1.07105       -0.56225
C         -1.32830       -0.65262       -0.14131
C         -0.14793       -1.20297       -0.68387
C          1.10306       -0.78734       -0.26575
C          2.33948       -1.31675       -0.78735
Cl         2.28084       -2.55690       -2.02091
C          3.55024       -0.88405       -0.35229
C          1.20677        0.23639        0.75257
C          2.50552        0.66731        1.18622
C          3.63146        0.12818        0.65460
C          0.05169        0.77974        1.28821
C         -1.22902        0.36556        0.87132
H         -2.32764        1.68042        2.17406
H         -4.80075        1.83096        2.31394
H         -5.12925       -1.73865       -1.23575
H         -2.67437       -1.84026       -1.32728
H         -0.23509       -1.96974       -1.44660
H          4.45805       -1.30631       -0.76865
H          2.56504        1.43631        1.95115
H          4.61126        0.45706        0.98554
H          0.13303        1.54866        2.05303
