42
syn_C_C_C_tetClbenz.log	Energy: -1781116.9893777
C         -1.79018       -0.55095        2.18227
C         -2.97516       -0.04330        1.66042
C         -4.19705       -0.03974        2.38293
C         -5.35527        0.46865        1.85027
C         -6.60566        0.28551        2.54320
C         -7.77619        0.60960        1.97183
C         -5.36396        1.08568        0.53649
C         -6.62913        1.67395        0.04195
C         -6.73311        2.59469       -1.02691
Cl        -5.34060        3.41516       -1.67937
C         -7.97319        2.97102       -1.54778
Cl        -8.07558        4.05667       -2.89091
C         -7.83331        1.30905        0.70205
C         -9.07595        1.69125        0.16195
Cl       -10.54868        1.16706        0.92566
C         -9.15705        2.48199       -0.97619
Cl       -10.68925        2.90322       -1.65440
C         -4.21075        1.00181       -0.20671
C         -3.00079        0.45731        0.31153
C         -1.84007        0.41318       -0.45423
C         -0.63874       -0.09656        0.06302
C          0.54620       -0.13968       -0.70155
C          1.72733       -0.64189       -0.18405
C          2.93879       -0.69002       -0.95519
C          4.08544       -1.18771       -0.42380
C          1.75403       -1.13574        1.17356
C          2.99146       -1.65239        1.68997
C          4.11205       -1.67758        0.92278
C          0.59862       -1.09878        1.93448
C         -0.61226       -0.58943        1.41958
H         -1.77433       -0.93078        3.20129
H         -4.22326       -0.49810        3.36878
H         -6.58609       -0.18426        3.52249
H         -8.70672        0.40276        2.48335
H         -4.18447        1.33682       -1.23304
H         -1.85855        0.79062       -1.47412
H          0.52507        0.23287       -1.72332
H          2.91552       -0.31777       -1.97600
H          4.99439       -1.21850       -1.01686
H          3.00937       -2.02321        2.71141
H          5.04085       -2.07052        1.32507
H          0.61906       -1.47045        2.95658
