40
syn_C_O_m-CNbenz_2-Cl.log	Energy: -972437.8597140
C          1.10912       -1.63165        1.02933
C          0.16823       -0.83748        0.37468
C         -1.23420       -1.03632        0.57140
C         -2.07679       -0.21842       -0.10514
O         -3.44747       -0.25395       -0.04737
C         -1.65544        0.82034       -0.99435
C         -2.87981        1.42204       -1.47996
C         -3.87048        0.73698       -0.87905
Cl        -5.56406        0.91216       -0.99366
C         -0.32012        1.02980       -1.19876
C          0.62712        0.20533       -0.51871
C          1.99988        0.38389       -0.69761
C          2.94096       -0.41400       -0.03977
C          4.33623       -0.23233       -0.22152
C          5.26942       -1.01276        0.42220
C          6.71745       -0.83681        0.24458
C          7.26408        0.14532       -0.60069
C          8.62686        0.29383       -0.75299
C          7.60626       -1.68384        0.94708
C          8.99005       -1.52894        0.78914
C          9.50275       -0.55123       -0.05142
C         10.92312       -0.40345       -0.20404
N         12.06919       -0.28194       -0.32910
C          4.80227       -2.05171        1.31298
C          5.76707       -2.88223        1.99943
C          7.09014       -2.71030        1.82847
C          3.45272       -2.24396        1.50244
C          2.48330       -1.44751        0.84585
H          0.76549       -2.41516        1.70069
H         -1.59848       -1.81175        1.23628
H         -2.99455        2.24140       -2.17253
H          0.03472        1.80911       -1.86666
H          2.34643        1.16693       -1.36848
H          4.64421        0.55838       -0.89816
H          6.61377        0.81193       -1.15509
H          9.02722        1.05798       -1.41030
H          9.66644       -2.18259        1.33165
H          5.39159       -3.65598        2.66344
H          7.80366       -3.34137        2.35070
H          3.11582       -3.02925        2.17540
