35
syn_S_O_3-OMe_2-CN.log	Energy: -860790.1376664
C          1.25680       -1.58536       -0.00337
C          0.07543       -0.83720       -0.00157
C         -1.20248       -1.47141       -0.00337
C         -2.29665       -0.66622       -0.00143
O         -3.60011       -1.08269       -0.00271
C         -2.23738        0.76061        0.00226
C         -3.61480        1.19319        0.00327
C         -4.35364        0.06078        0.00005
C         -5.76743       -0.10275       -0.00064
N         -6.92163       -0.20720       -0.00109
C         -1.02078        1.39148        0.00405
C          0.16649        0.60596        0.00218
C          1.43145        1.20536        0.00391
C          2.60816        0.45671        0.00212
C          3.89218        1.07548        0.00392
C          5.03423        0.31839        0.00210
C          7.27990       -0.29001        0.00080
O          8.61036       -0.15527        0.00171
C          9.41459       -1.32285       -0.00398
C          6.41162        0.74487        0.00334
C          4.91632       -1.11922       -0.00167
S          6.49978       -1.88935       -0.00344
C          3.71342       -1.75620       -0.00351
C          2.51372       -0.98186       -0.00164
H          1.19168       -2.67102       -0.00620
H         -1.28764       -2.55256       -0.00618
H         -3.99885        2.20252        0.00590
H         -0.94603        2.47498        0.00689
H          1.49744        2.29109        0.00675
H          3.95381        2.16045        0.00677
H         10.44672       -0.97315       -0.00214
H          9.23435       -1.92190       -0.90418
H          9.23423       -1.93073        0.89027
H          6.73355        1.77819        0.00601
H          3.64396       -2.84025       -0.00635
