51
syn_C_NPh_3-CN_benz.log	Energy: -816536.2957676
C         -3.47317        1.30880       -0.14024
C         -2.16659        0.83472       -0.13166
C         -1.05198        1.72063        0.00541
C          0.20463        1.19355        0.01101
N          1.43616        1.83504        0.11647
C          1.62298        3.23036        0.26756
C          1.02822        3.90032        1.33724
C          1.20460        5.27267        1.47670
C          1.98936        5.97571        0.56617
C          2.59013        5.30232       -0.49421
C          2.40014        3.93371       -0.65317
C          0.44615       -0.22352       -0.13405
C          1.89020       -0.39882       -0.10897
C          2.71350       -1.51714       -0.19217
C          4.09159       -1.34626       -0.11724
C          2.45481        0.88115        0.04421
C          3.83147        1.06288        0.13159
C          4.63701       -0.06878        0.04615
C         -0.59740       -1.08754       -0.26621
C         -1.93926       -0.59049       -0.26561
C         -3.02640       -1.44553       -0.39560
C         -4.34794       -0.96893       -0.40284
C         -5.45191       -1.83586       -0.53439
C         -6.74831       -1.35410       -0.54101
C         -7.90429       -2.21445       -0.67393
C         -7.71106       -3.63002       -0.80498
N         -7.53874       -4.77222       -0.90979
C         -9.17244       -1.70356       -0.67667
C         -6.98190        0.06343       -0.41120
C         -8.33235        0.54758       -0.42016
C         -9.38802       -0.30019       -0.54773
C         -5.90254        0.92186       -0.28136
C         -4.57569        0.44772       -0.27237
H         -3.65022        2.37747       -0.04199
H         -1.22450        2.78824        0.09684
H          0.43692        3.33910        2.05404
H          0.73777        5.79129        2.30851
H          2.13222        7.04548        0.68263
H          3.19867        5.84579       -1.21049
H          2.84428        3.40375       -1.49011
H          2.28438       -2.50799       -0.31036
H          4.74817       -2.20785       -0.18159
H          4.26222        2.04908        0.26786
H          5.71482        0.04686        0.11117
H         -0.43106       -2.15566       -0.37825
H         -2.85280       -2.51455       -0.49569
H         -5.27259       -2.90363       -0.63225
H        -10.02095       -2.37211       -0.77784
H         -8.49466        1.61769       -0.32178
H        -10.40406        0.08016       -0.55292
H         -6.08087        1.99040       -0.18368
