51
syn_C_NPh_diCF3_2-CN.log	Energy: -1143019.1702386
C          0.92233       -2.16478        0.30690
C         -0.15210       -1.35557       -0.06020
C         -1.49620       -1.81406        0.05114
C         -2.50341       -0.96836       -0.32137
N         -3.87613       -1.16806       -0.32466
C         -4.55130       -2.33776        0.11674
C         -4.33151       -2.80983        1.41049
C         -4.98226       -3.96057        1.84051
C         -5.86512       -4.62476        0.99261
C         -6.08923       -4.14099       -0.29309
C         -5.42449       -3.00426       -0.74047
C         -2.25386        0.35585       -0.83609
C         -3.53681        0.92859       -1.14359
C         -4.47129       -0.00977       -0.82608
C         -5.88627        0.11036       -0.93930
N         -7.03483        0.22578       -1.04596
C         -0.96830        0.81554       -0.95136
C          0.11617       -0.02133       -0.56481
C          1.43660        0.41448       -0.66674
C          2.51474       -0.40005       -0.29646
C          3.84782        0.05165       -0.40459
C          4.92720       -0.74151       -0.04233
C          6.31647       -0.30936       -0.13952
C          6.53162        1.08983       -0.69468
F          5.99502        1.19268       -1.92684
F          5.91972        2.00448        0.08337
F          7.80069        1.47295       -0.80437
C          7.32708       -1.14868        0.25624
C          8.81304       -0.80424        0.21752
F          9.10634        0.26074        0.97482
F          9.55486       -1.82010        0.69835
F          9.25095       -0.58062       -1.02815
C          4.64835       -2.06773        0.46196
C          5.74538       -2.89783        0.84830
C          7.02120       -2.46014        0.75370
C          3.34722       -2.52317        0.57107
C          2.24761       -1.72348        0.20291
H          0.72735       -3.16574        0.68459
H         -1.69739       -2.81458        0.42003
H         -3.66165       -2.26843        2.07117
H         -4.81037       -4.32923        2.84693
H         -6.37979       -5.51704        1.33482
H         -6.77665       -4.65441       -0.95766
H         -5.57959       -2.63370       -1.74857
H         -3.74098        1.91123       -1.54207
H         -0.76229        1.80923       -1.33892
H          1.63614        1.41434       -1.04520
H          3.99344        1.05328       -0.78487
H          5.53628       -3.89487        1.22545
H          7.83661       -3.10265        1.05476
H          3.16816       -3.52537        0.95317
