62
syn_NPh_NPh_2-Cl_p-OMebenz.log	Energy: -1250000.5888968
C         -3.82441        0.26099        0.51708
C         -2.46203        0.03118        0.33005
C         -1.49979        1.07681        0.48076
C         -0.18041        0.78687        0.28799
N          0.93475        1.62039        0.35855
C          0.91423        2.99567        0.68133
C          0.31671        3.42674        1.86709
C          0.28959        4.78228        2.17601
C          0.87575        5.71061        1.31947
C          1.48095        5.27752        0.14268
C          1.49185        3.92592       -0.18458
C          0.26515       -0.53401       -0.08066
C          1.71093       -0.45703       -0.22916
C          2.67397       -1.40025       -0.55120
C          4.01445       -1.01187       -0.59548
O          4.89974       -1.99513       -0.92425
C          6.26614       -1.66387       -0.97473
C          2.07905        0.87419        0.04527
C          3.40880        1.26373        0.01686
C          4.37486        0.31022       -0.30891
C         -0.63421       -1.54681       -0.23010
C         -2.02583       -1.29909       -0.02540
C         -2.97412       -2.31005       -0.16636
C         -4.34277       -2.08219        0.02268
C         -5.29665       -3.12663       -0.12170
C         -6.62936       -2.86330        0.06665
C         -7.82319       -3.67063        0.00425
C         -8.85637       -2.84418        0.29426
Cl       -10.53087       -3.23379        0.33237
C         -7.04623       -1.52974        0.40728
N         -8.43249       -1.54435        0.54606
C         -9.23192       -0.41395        0.86249
C         -9.24241        0.67802       -0.00423
C         -9.99940        1.80073        0.31238
C        -10.75705        1.82677        1.48050
C        -10.74764        0.73097        2.33948
C         -9.97661       -0.38702        2.03991
C         -6.16706       -0.49515        0.56807
C         -4.78111       -0.75186        0.37414
H         -4.15744        1.26196        0.78326
H         -1.83286        2.07741        0.73777
H         -0.11622        2.69424        2.54105
H         -0.17956        5.11188        3.09813
H          0.86057        6.76730        1.56788
H          1.93434        5.99600       -0.53353
H          1.93751        3.58288       -1.11316
H          2.41628       -2.43233       -0.76573
H          6.78901       -2.58040       -1.25159
H          6.63658       -1.31887        0.00002
H          6.46903       -0.89206       -1.72944
H          3.70444        2.28164        0.24760
H          5.41408        0.61674       -0.33198
H         -0.31002       -2.54594       -0.51023
H         -2.64092       -3.31102       -0.43320
H         -4.95596       -4.12618       -0.37826
H         -7.89860       -4.72041       -0.23506
H         -8.65855        0.63658       -0.91837
H        -10.00540        2.65194       -0.36134
H        -11.35361        2.70110        1.72191
H        -11.33348        0.74918        3.25321
H         -9.94532       -1.23870        2.71154
H         -6.50245        0.50158        0.83778
