31
syn_S_S_2-Cl_3-CN.log	Energy: -1280017.7215400
C          1.08388       -1.26086        0.17493
C          2.26133       -0.51356        0.08805
C          3.54280       -1.13479        0.14854
C          4.66243       -0.36032        0.05922
S          6.33823       -0.90266        0.10977
C          4.58582        1.06440       -0.09429
C          5.91745        1.64834       -0.16399
C          6.14294        3.04862       -0.31630
N          6.28957        4.19228       -0.44080
C          6.90744        0.72742       -0.06951
C          3.36783        1.68540       -0.15512
C          2.17354        0.91734       -0.06598
C          0.91277        1.51736       -0.12412
C         -0.26366        0.77077       -0.03729
C         -1.54571        1.38795       -0.09714
C         -2.68442        0.63202       -0.00954
C         -4.06437        1.06518       -0.04912
C         -4.92158        0.03486        0.06656
Cl        -6.64026        0.13553        0.06470
C         -2.57802       -0.79688        0.14420
S         -4.16797       -1.54673        0.23335
C         -1.37243       -1.42980        0.20619
C         -0.17446       -0.66012        0.11673
H          1.14999       -2.34018        0.29108
H          3.60554       -2.21278        0.26469
H          7.97082        0.92577       -0.09619
H          3.30538        2.76423       -0.27123
H          0.84739        2.59662       -0.24028
H         -1.60850        2.46656       -0.21324
H         -4.37423        2.09684       -0.15881
H         -1.30196       -2.50740        0.32212
