43
syn_O_O_diCF3_p-CNbenz.log	Energy: -1105544.9375744
C         -3.18328        1.25521        0.68459
C         -1.89457        0.75375        0.51430
C         -0.76846        1.36525        1.15349
C          0.44966        0.81544        0.93459
O          1.63400        1.26955        1.46408
C          0.66848       -0.33286        0.10689
C          2.10447       -0.56268        0.16242
C          2.96970       -1.49081       -0.39779
C          4.33333       -1.38557       -0.10241
C          5.25474       -2.33103       -0.66722
N          5.99769       -3.09475       -1.12403
C          2.61194        0.44201        0.99782
C          3.95745        0.56444        1.30341
C          4.81763       -0.36829        0.73896
C         -0.38507       -0.93483       -0.51306
C         -1.70049       -0.40585       -0.32566
C         -2.80654       -0.98884       -0.94046
C         -4.10273       -0.48727       -0.77223
C         -5.21486       -1.10421       -1.41165
C         -6.46363       -0.57454       -1.22100
C         -7.80661       -0.89239       -1.67132
C         -8.18795       -1.99876       -2.60248
F         -7.27215       -2.98292       -2.55675
F         -9.37174       -2.53826       -2.28677
F         -8.25651       -1.58004       -3.87370
C         -8.61013        0.04629       -1.12495
C        -10.09962        0.26020       -1.18290
F        -10.58738       -0.12400       -2.36513
F        -10.72430       -0.43706       -0.22707
F        -10.38854        1.55141       -1.00747
C         -6.62350        0.56927       -0.38795
O         -7.94453        0.92817       -0.34026
C         -5.60599        1.20100        0.25264
C         -4.29551        0.67163        0.06742
H         -3.33073        2.12770        1.31628
H         -0.89637        2.23599        1.78712
H          2.61002       -2.28064       -1.04850
H          4.31694        1.35339        1.95328
H          5.88097       -0.31724        0.94602
H         -0.24786       -1.80679       -1.14627
H         -2.66015       -1.86184       -1.57223
H         -5.05951       -1.97620       -2.03660
H         -5.77572        2.07074        0.87752
