56
syn_S_NPh_tetFbenz_p-CF3benz.log	Energy: -1516795.3457772
C         -3.61603       -2.06598        0.83121
C         -4.57933       -1.17643        0.34574
C         -5.97335       -1.45084        0.46970
C         -6.86244       -0.53964       -0.02266
N         -8.25671       -0.57971       -0.03818
C         -9.05433       -1.61936        0.50317
C         -8.94073       -1.95002        1.85339
C         -9.71768       -2.97677        2.37889
C        -10.62070       -3.65896        1.56743
C        -10.73769       -3.31921        0.22225
C         -9.94838       -2.30828       -0.31593
C         -6.43925        0.67351       -0.67110
C         -7.65196        1.36519       -1.07650
C         -7.88300        2.57037       -1.72725
C         -9.19622        2.96068       -1.96318
C         -9.49773        4.27342       -2.62579
F         -8.41287        4.81030       -3.20904
F        -10.44234        4.14394       -3.57629
F         -9.96330        5.18147       -1.74665
C         -8.73532        0.56243       -0.67046
C        -10.05440        0.95367       -0.89320
C        -10.26703        2.15907       -1.54479
C         -5.11077        0.95551       -0.80054
C         -4.14105        0.04089       -0.29340
C         -2.77245        0.29549       -0.40631
C         -1.81381       -0.59479        0.08034
C         -0.41967       -0.32589       -0.04055
C          0.50010       -1.21504        0.44383
C          1.95671       -1.14035        0.42627
C          2.78275       -0.14599       -0.08762
F          2.26823        0.94132       -0.67046
C          4.16320       -0.26077       -0.00657
F          4.94728        0.69414       -0.50029
C          2.55163       -2.26175        1.02836
C          3.92878       -2.38164        1.11230
F          4.48760       -3.44873        1.68528
C          4.73762       -1.37946        0.59388
F          6.06082       -1.47983        0.66651
C          0.05246       -2.42665        1.07785
S          1.39350       -3.43640        1.63193
C         -1.26986       -2.72183        1.21379
C         -2.24941       -1.80946        0.71626
H         -3.94254       -2.98519        1.31214
H         -6.30147       -2.37077        0.94304
H         -8.24902       -1.39694        2.48118
H         -9.62588       -3.23482        3.42936
H        -11.23185       -4.45413        1.98267
H        -11.43607       -3.85153       -0.41602
H        -10.01376       -2.05181       -1.36887
H         -7.05696        3.19601       -2.04726
H        -10.88749        0.34064       -0.56765
H        -11.28322        2.48762       -1.73758
H         -4.77551        1.86637       -1.28952
H         -2.44413        1.21371       -0.88826
H         -0.10072        0.59197       -0.52141
H         -1.59777       -3.63933        1.69379
