40
syn_C_O_3-CF3_3-OMe.log	Energy: -813083.1069930
C         -2.46243        1.28461        0.25647
C         -3.64143        0.57164        0.44824
C         -4.90648        1.23682        0.53243
C         -6.00909        0.46865        0.72067
O         -7.29319        0.91087        0.82610
C         -5.96389       -0.95597        0.83702
C         -7.34556       -1.34711        1.02446
O         -7.71314       -2.63215        1.17518
C         -9.10063       -2.83492        1.34582
C         -8.07773       -0.21110        1.00933
C         -4.77769       -1.62372        0.76162
C         -3.57652       -0.87391        0.56401
C         -2.33916       -1.50534        0.48005
C         -1.14994       -0.78654        0.28659
C          0.10208       -1.43270        0.20227
C          1.27621       -0.72368        0.01119
C          2.58352       -1.34014       -0.08225
C          2.71630       -2.83543        0.02886
F          2.01907       -3.47332       -0.93178
F          3.98995       -3.24532       -0.07645
F          2.25386       -3.29355        1.20880
C          3.70001       -0.58723       -0.27056
C          1.20881        0.71664       -0.10359
C          2.42101        1.46022       -0.30159
C          3.62196        0.83513       -0.38237
C         -0.01452        1.35826       -0.02195
C         -1.21521        0.64647        0.17203
H         -2.50621        2.36782        0.16922
H         -4.97036        2.31626        0.44764
H         -9.24839       -3.90947        1.45304
H         -9.65858       -2.47072        0.47284
H         -9.46236       -2.32078        2.24628
H         -9.13403       -0.01944        1.11085
H         -4.73255       -2.70481        0.84863
H         -2.29108       -2.58838        0.56678
H          0.11952       -2.51255        0.29252
H          4.66861       -1.06840       -0.33792
H          2.35190        2.54156       -0.38556
H          4.53401        1.40350       -0.53215
H         -0.05313        2.44175       -0.10961
