53
syn_NPh_NPh_2-CN_diF.log	Energy: -975738.7744618
C          0.43516       -0.99785        0.14476
C          1.65020       -0.31385        0.19484
C          2.89386       -1.01011        0.13544
C          4.04989       -0.28679        0.18386
N          5.37730       -0.71541        0.16325
C          5.84555       -2.04008       -0.02421
C          5.35666       -2.80169       -1.08581
C          5.80245       -4.10736       -1.25812
C          6.75101       -4.64550       -0.39255
C          7.24727       -3.87461        0.65517
C          6.78946       -2.57645        0.85080
C          4.04931        1.15052        0.31218
C          5.43060        1.54053        0.36346
F          5.88441        2.78975        0.47876
C          6.17436        0.41704        0.27196
F          7.48587        0.28194        0.26218
C          2.87108        1.84076        0.37431
C          1.63886        1.12813        0.31116
C          0.41189        1.78893        0.36456
C         -0.80809        1.10464        0.31206
C         -2.04675        1.79651        0.36025
C         -3.22269        1.08947        0.30995
C         -4.60696        1.47620        0.32199
C         -5.33729        0.32899        0.23648
C         -6.75633        0.20936        0.23591
N         -7.91346        0.13495        0.22961
C         -3.19413       -0.34602        0.21335
N         -4.50858       -0.79173        0.17039
C         -4.92958       -2.14570        0.09918
C         -4.47213       -3.05805        1.04995
C         -4.87414       -4.38671        0.97603
C         -5.74652       -4.80064       -0.02754
C         -6.20927       -3.88266       -0.96579
C         -5.79341       -2.55653       -0.91435
C         -2.02410       -1.05416        0.14998
C         -0.79730       -0.33733        0.20101
H          0.44520       -2.08226        0.05929
H          2.90239       -2.09274        0.05987
H          4.63872       -2.36472       -1.77245
H          5.41721       -4.69974       -2.08225
H          7.10363       -5.66214       -0.53502
H          7.98621       -4.28844        1.33424
H          7.15653       -1.97894        1.67823
H          2.86386        2.92170        0.47588
H          0.40179        2.87339        0.45008
H         -2.05045        2.88074        0.43140
H         -5.01153        2.47511        0.39192
H         -3.81370       -2.71856        1.84329
H         -4.51638       -5.09655        1.71537
H         -6.06696       -5.83659       -0.07641
H         -6.88966       -4.19912       -1.74996
H         -6.13492       -1.84109       -1.65533
H         -2.01559       -2.13554        0.05770
