64
syn_NPh_NPh_3-CF3_m-CF3benz.log	Energy: -1312658.1823677
C         -3.68731        0.55202        0.43955
C         -2.34072        0.35010        0.14015
C         -1.33860        1.28680        0.53984
C         -0.03828        1.02722        0.22082
N          1.10879        1.77838        0.48112
C          1.14540        3.00700        1.18503
C          0.63798        3.07997        2.48254
C          0.66834        4.28951        3.16798
C          1.22219        5.42010        2.57275
C          1.73664        5.34106        1.28142
C          1.68921        4.14055        0.58066
C          0.35082       -0.14753       -0.51709
C          1.79250       -0.06722       -0.68796
C          2.72845       -0.89886       -1.29316
C          4.06978       -0.53971       -1.26780
C          2.21095        1.12405       -0.06393
C          3.55091        1.49042       -0.01945
C          4.46766        0.64169       -0.63251
C          5.92038        1.03176       -0.66752
F          6.72794       -0.03734       -0.56001
F          6.23841        1.64394       -1.82398
F          6.24227        1.87944        0.32444
C         -0.58800       -1.05493       -0.91000
C         -1.96230       -0.83715       -0.59104
C         -2.94977       -1.74252       -0.97470
C         -4.30218       -1.54140       -0.67496
C         -5.29761       -2.47005       -1.08377
C         -6.60897       -2.23478       -0.76619
C         -7.84390       -2.93631       -1.03485
C         -7.98468       -4.21742       -1.76232
F         -7.30610       -5.21528       -1.16247
F         -9.27143       -4.59982       -1.84871
F         -7.50147       -4.13859       -3.01817
C         -8.85015       -2.21423       -0.48070
C         -6.97127       -1.06140       -0.02075
N         -8.35768       -1.08628        0.14031
C         -9.14874       -0.12482        0.81595
C         -8.79891        0.28906        2.10157
C         -9.58520        1.22860        2.75880
C        -10.72838        1.74000        2.14977
C        -11.07975        1.31365        0.87209
C        -10.28722        0.39088        0.19772
C         -6.05068       -0.13113        0.37644
C         -4.68240       -0.35622        0.05724
H         -3.97595        1.44547        0.98894
H         -1.62635        2.18281        1.08061
H          0.22913        2.18717        2.94526
H          0.27047        4.34412        4.17665
H          1.25310        6.36042        3.11422
H          2.16556        6.21999        0.81023
H          2.06543        4.07507       -0.43565
H          2.41707       -1.82095       -1.77443
H          4.81438       -1.17713       -1.73109
H          3.87566        2.39527        0.48049
H         -0.30922       -1.94424       -1.46938
H         -2.66215       -2.63465       -1.52689
H         -5.01054       -3.35132       -1.64947
H         -9.90944       -2.42724       -0.45403
H         -7.92496       -0.13787        2.58282
H         -9.31031        1.54977        3.75873
H        -11.34335        2.46787        2.66947
H        -11.96677        1.71129        0.38883
H        -10.53738        0.07898       -0.81184
H         -6.33769        0.76684        0.91406
