36
syn_C_S_2-CF3_C.log	Energy: -943920.3906782
C          1.00694       -1.68153       -0.53746
C         -0.11980       -0.91574       -0.25523
C         -1.43933       -1.42247       -0.46538
C         -2.51239       -0.63530       -0.17453
S         -4.21315       -1.04927       -0.35308
C         -2.36125        0.70346        0.34273
C         -3.64898        1.32814        0.56861
C         -4.68319        0.52865        0.24898
C         -1.10718        1.20916        0.55186
C          0.04827        0.42423        0.26278
C          1.33459        0.91509        0.46658
C          2.47319        0.14602        0.18326
C          3.77996        0.63853        0.38792
C          4.89505       -0.12904        0.10472
C          6.22606        0.36747        0.31110
C          7.30496       -0.40437        0.02568
C          8.70291        0.10080        0.23445
F          8.73546        1.34916        0.72473
F          9.38234       -0.68553        1.09021
F          9.39735        0.10308       -0.91882
C          4.72801       -1.46643       -0.41265
C          5.90541       -2.24081       -0.69800
C          7.14558       -1.73527       -0.48924
C          3.45318       -1.96107       -0.61762
C          2.30530       -1.18988       -0.33336
H          0.88048       -2.68907       -0.92713
H         -1.56202       -2.42914       -0.85449
H         -3.76208        2.33433        0.95481
H         -5.73671        0.76376        0.32750
H         -0.97654        2.21558        0.94105
H          1.46252        1.92252        0.85622
H          3.90753        1.64593        0.77770
H          6.35426        1.37241        0.69998
H          5.78027       -3.24731       -1.08747
H          8.02886       -2.32659       -0.70729
H          3.32575       -2.96848       -1.00740
