48
syn_O_NPh_3-CF3_2-OMe.log	Energy: -944186.9067070
C          1.16496       -1.84786       -0.13243
C          0.02233       -1.04754       -0.07244
C         -1.28521       -1.61730       -0.09921
C         -2.35893       -0.77973       -0.03178
N         -3.72184       -1.07298       -0.05502
C         -4.29829       -2.36881       -0.05577
C         -3.91046       -3.29448        0.91297
C         -4.45318       -4.57480        0.90126
C         -5.39686       -4.92742       -0.05954
C         -5.79055       -3.99550       -1.01637
C         -5.23658       -2.72039       -1.02514
C         -2.22983        0.65533        0.04677
C         -3.56611        1.19696        0.07252
C         -4.41194        0.13076        0.00989
O         -5.74335        0.04785        0.01178
C         -6.42426        1.28583        0.11827
C         -0.98198        1.21718        0.07123
C          0.17515        0.38559        0.01755
C          1.46351        0.92317        0.04498
C          2.60924        0.12419       -0.01316
C          3.91417        0.69863        0.01711
C          5.00192       -0.12712       -0.04319
C          6.44092        0.05227       -0.03966
C          7.17815        1.33573        0.04433
F          6.88899        2.00044        1.17760
F          8.50798        1.14433        0.01297
F          6.86036        2.15730       -0.97238
C          6.97912       -1.17987       -0.12467
C          4.82169       -1.53835       -0.13565
O          6.04599       -2.16257       -0.18446
C          3.60937       -2.14758       -0.16861
C          2.45389       -1.30972       -0.10616
H          1.04778       -2.92717       -0.20227
H         -1.40308       -2.69360       -0.17703
H         -3.19000       -3.00339        1.67082
H         -4.14552       -5.29393        1.65424
H         -5.82458       -5.92521       -0.06264
H         -6.52468       -4.26507       -1.76948
H         -5.52668       -1.99352       -1.77563
H         -3.84043        2.23895        0.12962
H         -7.48741        1.04743        0.11824
H         -6.18601        1.93281       -0.73384
H         -6.15495        1.79515        1.05050
H         -0.85625        2.29514        0.12648
H          1.58101        2.00258        0.11341
H          4.02723        1.77614        0.08698
H          8.00724       -1.50810       -0.15252
H          3.51133       -3.22554       -0.23951
