52
syn_C_NPh_2-F_diOMe.log	Energy: -868216.7363283
C         -3.12954       -0.89271        1.52825
C         -4.15117       -0.15070        0.94305
C         -5.48995       -0.21191        1.43894
C         -6.44718        0.54643        0.83207
N         -7.81006        0.65680        1.09563
C         -8.53624       -0.06643        2.06970
C         -8.10873       -0.05506        3.39912
C         -8.81724       -0.76821        4.35996
C         -9.96630       -1.47061        4.00695
C        -10.39881       -1.46493        2.68328
C         -9.68329       -0.77629        1.71004
C         -6.15415        1.38018       -0.30928
C         -7.40386        1.98585       -0.70299
O         -7.58997        2.84631       -1.74040
C         -7.18994        4.17465       -1.44750
C         -8.36224        1.53226        0.14696
O         -9.67553        1.80869        0.14777
C        -10.09787        2.69094        1.18631
C         -4.88415        1.44988       -0.80807
C         -3.84098        0.69551       -0.19271
C         -2.53152        0.74373       -0.66374
C         -1.49996       -0.00200       -0.07408
C         -0.17135        0.04512       -0.54896
C          0.83853       -0.69519        0.03957
C          2.19288       -0.65271       -0.43767
C          3.13871       -1.39866        0.17764
F          4.41035       -1.37169       -0.25448
C          0.52733       -1.54018        1.17073
C          1.58733       -2.30328        1.77082
C          2.85707       -2.24028        1.29517
C         -0.77116       -1.59477        1.64539
C         -1.80957       -0.84470        1.05421
H         -3.35906       -1.53055        2.37924
H         -5.72039       -0.86395        2.27540
H         -7.22931        0.52002        3.67159
H         -8.47658       -0.76141        5.39090
H        -10.52299       -2.01931        4.76019
H        -11.29275       -2.01238        2.40044
H        -10.00730       -0.78012        0.67556
H         -7.33144        4.75330       -2.36226
H         -6.13578        4.21904       -1.14565
H         -7.80571        4.60316       -0.64542
H        -11.15746        2.87845        1.01092
H         -9.53977        3.63275        1.13569
H         -9.96462        2.23559        2.17370
H         -4.66295        2.05829       -1.68059
H         -2.30069        1.37788       -1.51701
H          0.05881        0.68141       -1.40055
H          2.45479       -0.02762       -1.28491
H          1.35154       -2.93807        2.62056
H          3.66776       -2.80958        1.73648
H         -1.00246       -2.23188        2.49648
